Li399 C105 H140 O105 P7 F42
1.00
24.564400 0.000000 0.000000
0.000000 24.564400 0.000000
0.000000 0.000000 60.000000
Li C H O P F 
399 105 140 105 7 42 
Selective
Cartesian
0.0000000000 0.0000000000 2.2550000000 F F F
0.0074410000 24.5619110000 5.6896180000 F F F
0.1080570000 0.1746500000 9.5622740000 F F F
0.3349890000 0.2138890000 11.8969460000 F F F
1.7550000000 1.7550000000 0.5000000000 F F F
1.7550000000 1.7550000000 4.0090000000 F F F
1.6159870000 1.9762930000 7.2823350000 F F F
24.5517600000 3.1819580000 9.2771330000 F F F
3.5090000000 0.0000000000 2.2550000000 F F F
3.5423680000 24.5421490000 5.6909690000 F F F
4.0821200000 0.3392680000 8.9514900000 F F F
3.1975140000 22.1246260000 13.7278750000 F F F
5.2640000000 1.7550000000 0.5000000000 F F F
5.2640000000 1.7550000000 4.0090000000 F F F
5.5258150000 1.6820080000 7.0592090000 F F F
6.8685040000 0.8307750000 11.2806500000 F F F
7.0180000000 0.0000000000 2.2550000000 F F F
7.0225220000 24.5339190000 5.6756400000 F F F
9.0699580000 1.2572510000 9.6205130000 F F F
7.0557950000 21.1671660000 8.9792230000 F F F
8.7730000000 1.7550000000 0.5000000000 F F F
8.7730000000 1.7550000000 4.0090000000 F F F
8.4146230000 1.5688840000 6.8799360000 F F F
8.1552470000 2.7754350000 11.8614570000 F F F
10.5280000000 0.0000000000 2.2550000000 F F F
10.5277830000 24.5335210000 5.6830690000 F F F
8.8885400000 22.6638880000 7.2497810000 F F F
11.0091780000 24.5640240000 10.8522340000 F F F
12.2820000000 1.7550000000 0.5000000000 F F F
12.2820000000 1.7550000000 4.0090000000 F F F
12.1216080000 1.9387040000 6.9183000000 F F F
11.3233820000 3.4518210000 11.7906740000 F F F
14.0370000000 0.0000000000 2.2550000000 F F F
14.0429490000 24.5299970000 5.6815280000 F F F
15.5265540000 22.7551630000 10.9746860000 F F F
14.9629210000 0.1664050000 15.3992970000 F F F
15.7910000000 1.7550000000 0.5000000000 F F F
15.7910000000 1.7550000000 4.0090000000 F F F
15.6091300000 2.0007840000 7.6340100000 F F F
15.3877870000 3.8115990000 11.2294370000 F F F
17.5460000000 0.0000000000 2.2550000000 F F F
17.5435080000 24.5324260000 5.6774750000 F F F
17.3468980000 1.0288110000 11.6288570000 F F F
17.3141330000 2.1000860000 14.0528730000 F F F
19.3010010000 1.7550000000 0.5000000000 F F F
19.3010010000 1.7550000000 4.0090000000 F F F
19.1528020000 1.6022390000 7.5515370000 F F F
21.3820860000 24.1944790000 8.9591830000 F F F
21.0550000000 0.0000000000 2.2550000000 F F F
21.0465170000 24.5562670000 5.6675930000 F F F
21.1941750000 21.2671320000 10.2840220000 F F F
20.9368410000 24.4920210000 11.4146430000 F F F
22.8099990000 1.7550000000 0.5000000000 F F F
22.8099990000 1.7550000000 4.0090000000 F F F
23.1802760000 2.4505130000 7.5726030000 F F F
23.0356310000 2.2076970000 10.5916680000 F F F
0.0000000000 3.5090000000 2.2550000000 F F F
0.0162700000 3.4887970000 5.6878570000 F F F
1.1420940000 2.8716970000 11.8578540000 F F F
2.0408210000 1.8700190000 10.1652260000 F F F
1.7550000000 5.2640000000 0.5000000000 F F F
1.7550000000 5.2640000000 4.0090000000 F F F
1.2990670000 4.8848640000 7.3912100000 F F F
2.9568240000 4.2567310000 12.7363840000 F F F
3.5090000000 3.5090000000 2.2550000000 F F F
3.5470380000 3.4828850000 5.6895110000 F F F
3.3345020000 3.9444780000 9.4511180000 F F F
4.4465260000 2.5932430000 11.5036960000 F F F
5.2640000000 5.2640000000 0.5000000000 F F F
5.2640000000 5.2640000000 4.0090000000 F F F
5.3136550000 5.2852640000 6.9383820000 F F F
6.2057080000 6.1589860000 9.2390720000 F F F
7.0180000000 3.5090000000 2.2550000000 F F F
7.0325220000 3.4883420000 5.6895560000 F F F
7.0105520000 3.5118600000 9.1189000000 F F F
6.5519650000 4.9758100000 12.3905980000 F F F
8.7730000000 5.2640000000 0.5000000000 F F F
8.7730000000 5.2640000000 4.0090000000 F F F
8.3654320000 5.5166270000 7.3268320000 F F F
8.9187540000 5.1084340000 10.3561210000 F F F
10.5280000000 3.5090000000 2.2550000000 F F F
10.5187240000 3.4719730000 5.6846380000 F F F
10.1991320000 3.4081650000 8.7660800000 F F F
11.3409880000 5.9236190000 13.8395010000 F F F
12.2820000000 5.2640000000 0.5000000000 F F F
12.2820000000 5.2640000000 4.0090000000 F F F
12.2564630000 4.8111000000 6.9550010000 F F F
11.8949690000 6.0478820000 11.0513750000 F F F
14.0370000000 3.5090000000 2.2550000000 F F F
14.0406830000 3.4759480000 5.6728270000 F F F
13.3140690000 2.9587630000 9.4002880000 F F F
14.9573350000 5.5497380000 14.6492560000 F F F
15.7910000000 5.2640000000 0.5000000000 F F F
15.7910000000 5.2640000000 4.0090000000 F F F
15.8365550000 5.8296800000 8.3604230000 F F F
17.4065650000 3.1215710000 9.2806820000 F F F
17.5460000000 3.5090000000 2.2550000000 F F F
17.5453230000 3.4856580000 5.6806360000 F F F
19.0225490000 5.5890410000 11.3152470000 F F F
20.7929010000 4.9983490000 16.3687600000 F F F
19.3010010000 5.2640000000 0.5000000000 F F F
19.3010010000 5.2640000000 4.0090000000 F F F
19.2705200000 5.9332610000 8.5169520000 F F F
18.8036840000 5.5095570000 14.4887710000 F F F
21.0550000000 3.5090000000 2.2550000000 F F F
21.0388660000 3.4978990000 5.6787780000 F F F
20.9665350000 2.9121500000 9.3422420000 F F F
19.8781990000 2.8319000000 12.0631510000 F F F
22.8099990000 5.2640000000 0.5000000000 F F F
22.8099990000 5.2640000000 4.0090000000 F F F
22.9623010000 4.8198420000 7.8044320000 F F F
22.0081620000 4.8977620000 10.3050810000 F F F
0.0000000000 7.0180000000 2.2550000000 F F F
0.0048850000 7.0095950000 5.6870440000 F F F
24.0597290000 6.8663500000 10.2438330000 F F F
20.8274650000 8.3497470000 13.3514070000 F F F
1.7550000000 8.7730000000 0.5000000000 F F F
1.7550000000 8.7730000000 4.0090000000 F F F
0.9933710000 9.4320720000 7.7391630000 F F F
4.7025629979 9.3732799026 10.6582301733 T T T
3.5090000000 7.0180000000 2.2550000000 F F F
3.5271270000 7.0103170000 5.6725140000 F F F
3.0315510000 7.0505250000 8.4025610000 F F F
0.1724320000 3.2287610000 16.3689840000 F F F
5.2640000000 8.7730000000 0.5000000000 F F F
5.2640000000 8.7730000000 4.0090000000 F F F
5.5076996091 8.6896436104 8.1389044992 T T T
6.4316470914 10.9141831647 13.4784653026 T T T
7.0180000000 7.0180000000 2.2550000000 F F F
7.0237870000 7.0181620000 5.6721060000 F F F
8.2078320000 7.8044060000 9.8082090000 F F F
3.0308100000 13.9612890000 9.0140930000 F F F
8.7730000000 8.7730000000 0.5000000000 F F F
8.7730000000 8.7730000000 4.0090000000 F F F
8.7139790000 8.9162240000 7.2884340000 F F F
9.2445510000 7.5819280000 12.4537930000 F F F
10.5280000000 7.0180000000 2.2550000000 F F F
10.5418270000 7.0227440000 5.6717400000 F F F
11.7885180000 8.9580220000 10.8702670000 F F F
10.5629320000 10.4117840000 18.6216590000 F F F
12.2820000000 8.7730000000 0.5000000000 F F F
12.2820000000 8.7730000000 4.0090000000 F F F
11.4591910000 8.6366280000 8.3735520000 F F F
13.2902650000 8.0117600000 12.7950860000 F F F
14.0370000000 7.0180000000 2.2550000000 F F F
14.0357120000 7.0207240000 5.6808810000 F F F
13.8453180000 6.8281820000 9.5676510000 F F F
13.5057680000 7.4250450000 15.5432040000 F F F
15.7910000000 8.7730000000 0.5000000000 F F F
15.7910000000 8.7730000000 4.0090000000 F F F
15.4695300000 8.6348720000 7.9884430000 F F F
14.5469880000 8.6796310000 10.8479200000 F F F
17.5460000000 7.0180000000 2.2550000000 F F F
17.5416220000 7.0178460000 5.6727670000 F F F
17.4855940000 7.8126350000 8.9522520000 F F F
19.0606890000 8.1344120000 11.1751810000 F F F
19.3010010000 8.7730000000 0.5000000000 F F F
19.3010010000 8.7730000000 4.0090000000 F F F
19.4405540000 8.6843400000 7.0817610000 F F F
16.7353070000 6.7454690000 10.7527360000 F F F
21.0550000000 7.0180000000 2.2550000000 F F F
21.0611610000 7.0054880000 5.6686990000 F F F
18.4497880000 8.1076590000 14.8880670000 F F F
22.5776440000 5.7795600000 12.6906750000 F F F
22.8099990000 8.7730000000 0.5000000000 F F F
22.8099990000 8.7730000000 4.0090000000 F F F
22.6281810000 8.9732250000 7.6423910000 F F F
21.7542850000 7.9855820000 10.8877030000 F F F
0.0000000000 10.5280000000 2.2550000000 F F F
0.0099680000 10.5321540000 5.6807810000 F F F
23.9832370000 10.1819440000 9.5442740000 F F F
2.2010240000 12.9924930000 14.6127720000 F F F
1.7550000000 12.2820000000 0.5000000000 F F F
1.7550000000 12.2820000000 4.0090000000 F F F
1.4048990000 12.2711600000 7.4261950000 F F F
1.5776488574 11.0393651795 12.7679106449 T T T
3.5090000000 10.5280000000 2.2550000000 F F F
3.5237710000 10.5310900000 5.6671820000 F F F
2.2394860461 10.8884209343 9.7676281860 T T T
5.8487812709 7.9209132303 12.3126978428 T T T
5.2640000000 12.2820000000 0.5000000000 F F F
5.2640000000 12.2820000000 4.0090000000 F F F
5.1790135725 12.1925385020 7.6419693257 T T T
5.2398370000 16.2088900000 9.6063780000 F F F
7.0180000000 10.5280000000 2.2550000000 F F F
7.0227640000 10.5332460000 5.6703950000 F F F
6.9033686010 10.4147890250 9.8567924388 T T T
7.3197830000 9.3668500000 16.6354420000 F F F
8.7730000000 12.2820000000 0.5000000000 F F F
8.7730000000 12.2820000000 4.0090000000 F F F
6.8993370000 13.9787240000 9.2094190000 F F F
10.2544740000 8.9939930000 15.0750610000 F F F
10.5280000000 10.5280000000 2.2550000000 F F F
10.5258190000 10.5402840000 5.6642260000 F F F
9.5965960000 10.2536640000 9.7048420000 F F F
11.4261570000 11.7560740000 10.3708900000 F F F
12.2820000000 12.2820000000 0.5000000000 F F F
12.2820000000 12.2820000000 4.0090000000 F F F
10.8924440000 14.1198370000 9.0941040000 F F F
8.8954680000 12.0138430000 12.4168450000 F F F
14.0370000000 10.5280000000 2.2550000000 F F F
14.0441200000 10.5400580000 5.6663530000 F F F
12.1478810000 11.0462810000 8.0876170000 F F F
13.1767540000 11.8507850000 12.4323110000 F F F
15.7910000000 12.2820000000 0.5000000000 F F F
15.7910000000 12.2820000000 4.0090000000 F F F
16.1254750000 12.1631980000 7.4332710000 F F F
13.3414450000 14.6406720000 12.2903390000 F F F
17.5460000000 10.5280000000 2.2550000000 F F F
17.5544240000 10.5353850000 5.6728710000 F F F
16.6470850000 12.2195510000 10.1607780000 F F F
18.7134020000 6.4319020000 16.8789800000 F F F
19.3010010000 12.2820000000 0.5000000000 F F F
19.3010010000 12.2820000000 4.0090000000 F F F
19.0355740000 12.4317300000 7.4423460000 F F F
20.5453860000 9.9046990000 9.9567580000 F F F
21.0550000000 10.5280000000 2.2550000000 F F F
21.0490570000 10.5389800000 5.6770280000 F F F
18.1493690000 10.5353040000 8.7840260000 F F F
21.0679500000 10.9324930000 12.2415260000 F F F
22.8099990000 12.2820000000 0.5000000000 F F F
22.8099990000 12.2820000000 4.0090000000 F F F
22.8141610000 12.2358920000 7.4410310000 F F F
24.0841450000 12.5100340000 13.6495360000 F F F
0.0000000000 14.0370000000 2.2550000000 F F F
0.0026890000 14.0260550000 5.6721610000 F F F
0.1793270000 14.3917750000 8.5086180000 F F F
4.4163320000 16.3232560000 12.9395220000 F F F
1.7550000000 15.7910000000 0.5000000000 F F F
1.7550000000 15.7910000000 4.0090000000 F F F
2.5547680000 16.0506240000 7.8022460000 F F F
2.3478160000 17.9349810000 12.9574630000 F F F
3.5090000000 14.0370000000 2.2550000000 F F F
3.5188510000 14.0587740000 5.6749930000 F F F
0.0795650000 12.4569930000 10.1748910000 F F F
1.0335460000 14.0796130000 12.4406050000 F F F
5.2640000000 15.7910000000 0.5000000000 F F F
5.2640000000 15.7910000000 4.0090000000 F F F
5.2519020000 16.0007470000 6.9120530000 F F F
5.0366770000 14.0699410000 14.4093220000 F F F
7.0180000000 14.0370000000 2.2550000000 F F F
7.0253500000 14.0575260000 5.6809850000 F F F
6.8378030000 13.5092640000 12.1138140000 F F F
3.6745599145 13.4268041825 12.0196915404 T T T
8.7730000000 15.7910000000 0.5000000000 F F F
8.7730000000 15.7910000000 4.0090000000 F F F
8.7720990000 15.4348000000 7.0033950000 F F F
10.4161310000 13.8363030000 11.5325230000 F F F
10.5280000000 14.0370000000 2.2550000000 F F F
10.5256680000 14.0526070000 5.6782800000 F F F
8.8008530000 12.6038440000 7.0621560000 F F F
10.9944490000 13.0702870000 14.1496890000 F F F
12.2820000000 15.7910000000 0.5000000000 F F F
12.2820000000 15.7910000000 4.0090000000 F F F
12.3889820000 15.7188470000 7.0873970000 F F F
12.0970830000 15.6455670000 10.6445880000 F F F
14.0370000000 14.0370000000 2.2550000000 F F F
14.0504640000 14.0578270000 5.6923680000 F F F
13.6282260000 13.7916390000 9.2541130000 F F F
13.4282590000 17.0012840000 13.7362720000 F F F
15.7910000000 15.7910000000 0.5000000000 F F F
15.7910000000 15.7910000000 4.0090000000 F F F
15.5779070000 15.6208980000 7.2561990000 F F F
16.0163670000 15.6426600000 13.1177120000 F F F
17.5460000000 14.0370000000 2.2550000000 F F F
17.5452360000 14.0471100000 5.6807460000 F F F
15.5836290000 15.6242380000 10.3620060000 F F F
17.6644610000 14.0300750000 9.0118330000 F F F
19.3010010000 15.7910000000 0.5000000000 F F F
19.3010010000 15.7910000000 4.0090000000 F F F
19.3327550000 15.7673960000 7.7670140000 F F F
17.9898700000 15.9859760000 10.9967190000 F F F
21.0550000000 14.0370000000 2.2550000000 F F F
21.0543880000 14.0362730000 5.6766680000 F F F
21.4085410000 13.6700810000 9.3929730000 F F F
18.9988930000 13.2324530000 11.2548650000 F F F
22.8099990000 15.7910000000 0.5000000000 F F F
22.8099990000 15.7910000000 4.0090000000 F F F
22.1278980000 15.5510560000 7.3010930000 F F F
24.5411630000 16.7703670000 12.4097540000 F F F
0.0000000000 17.5460000000 2.2550000000 F F F
24.5515740000 17.5656230000 5.6866620000 F F F
0.1384810000 17.2504260000 9.7378030000 F F F
22.7326650000 14.7651020000 12.5909800000 F F F
1.7550000000 19.3010010000 0.5000000000 F F F
1.7550000000 19.3010010000 4.0090000000 F F F
0.9816140000 19.7404640000 7.8321200000 F F F
1.0273550000 20.0813320000 14.0382970000 F F F
3.5090000000 17.5460000000 2.2550000000 F F F
3.4926290000 17.5735220000 5.6929290000 F F F
3.5017330000 17.7132250000 9.7402650000 F F F
1.2241250000 15.5039800000 14.3897750000 F F F
5.2640000000 19.3010010000 0.5000000000 F F F
5.2640000000 19.3010010000 4.0090000000 F F F
2.7585090000 15.8603090000 11.3908310000 F F F
2.7156390000 20.3582130000 11.3484960000 F F F
7.0180000000 17.5460000000 2.2550000000 F F F
7.0395680000 17.5650880000 5.6837700000 F F F
8.4144160000 19.7179090000 7.7612460000 F F F
8.3371080000 14.0139210000 14.1052190000 F F F
8.7730000000 19.3010010000 0.5000000000 F F F
8.7730000000 19.3010010000 4.0090000000 F F F
7.9602520000 17.6868580000 9.3066380000 F F F
6.0864000000 18.9527220000 8.1079930000 F F F
10.5280000000 17.5460000000 2.2550000000 F F F
10.5272400000 17.5635770000 5.6727550000 F F F
10.5127450000 16.7552880000 8.7620600000 F F F
8.5955530000 15.3209780000 11.2921830000 F F F
12.2820000000 19.3010010000 0.5000000000 F F F
12.2820000000 19.3010010000 4.0090000000 F F F
12.3659660000 19.2167660000 7.2875020000 F F F
12.1232550000 19.0979780000 10.8729860000 F F F
14.0370000000 17.5460000000 2.2550000000 F F F
14.0328000000 17.5617790000 5.6817040000 F F F
13.9154640000 17.3859560000 8.9107070000 F F F
13.9934250000 19.4478200000 12.8694250000 F F F
15.7910000000 19.3010010000 0.5000000000 F F F
15.7910000000 19.3010010000 4.0090000000 F F F
15.7942390000 19.2893370000 7.0993480000 F F F
15.9017630000 18.8940930000 10.5355450000 F F F
17.5460000000 17.5460000000 2.2550000000 F F F
17.5676920000 17.5607310000 5.6729040000 F F F
17.2663670000 17.3541900000 8.5010550000 F F F
21.2062130000 17.7239780000 12.6316620000 F F F
19.3010010000 19.3010010000 0.5000000000 F F F
19.3010010000 19.3010010000 4.0090000000 F F F
19.4721050000 19.0033350000 7.3618950000 F F F
19.2441470000 16.6514650000 13.7679570000 F F F
21.0550000000 17.5460000000 2.2550000000 F F F
21.0747730000 17.5434010000 5.6868160000 F F F
20.5427520000 15.5454690000 11.0336960000 F F F
22.0888950000 19.2010830000 10.5694920000 F F F
22.8099990000 19.3010010000 0.5000000000 F F F
22.8099990000 19.3010010000 4.0090000000 F F F
23.0123880000 19.8685410000 7.5128440000 F F F
23.6555460000 19.2719410000 12.3275420000 F F F
0.0000000000 21.0550000000 2.2550000000 F F F
24.5525750000 21.0769000000 5.6762920000 F F F
24.5365160000 21.6540760000 9.4921320000 F F F
0.5772840000 21.7966770000 12.0759510000 F F F
1.7550000000 22.8099990000 0.5000000000 F F F
1.7550000000 22.8099990000 4.0090000000 F F F
1.4779340000 22.4027010000 7.4362600000 F F F
2.0426310000 23.2255400000 10.3034160000 F F F
3.5090000000 21.0550000000 2.2550000000 F F F
3.5216820000 21.0557240000 5.6762720000 F F F
3.6753880000 19.6364380000 8.1000310000 F F F
4.6599790000 18.7863400000 12.8765950000 F F F
5.2640000000 22.8099990000 0.5000000000 F F F
5.2640000000 22.8099990000 4.0090000000 F F F
5.0421340000 22.6400300000 7.4229120000 F F F
4.8689630000 22.3083960000 10.3440980000 F F F
7.0180000000 21.0550000000 2.2550000000 F F F
7.0322330000 21.0430870000 5.6690990000 F F F
4.9834150000 18.6486320000 5.8730130000 F F F
5.7428910000 18.7986480000 10.4922150000 F F F
8.7730000000 22.8099990000 0.5000000000 F F F
8.7730000000 22.8099990000 4.0090000000 F F F
8.6096610000 23.1468290000 9.6673090000 F F F
10.4879990000 20.8517950000 8.4463820000 F F F
10.5280000000 21.0550000000 2.2550000000 F F F
10.5318270000 21.0482890000 5.6700010000 F F F
11.7992200000 21.6625350000 10.9206120000 F F F
8.9097260000 20.3768200000 10.2063700000 F F F
12.2820000000 22.8099990000 0.5000000000 F F F
12.2820000000 22.8099990000 4.0090000000 F F F
12.2000010000 22.8855450000 7.2902940000 F F F
13.6829570000 0.0814830000 9.1576900000 F F F
14.0370000000 21.0550000000 2.2550000000 F F F
14.0456410000 21.0452550000 5.6828970000 F F F
14.4882160000 21.2548140000 8.5682780000 F F F
12.7106590000 23.4688830000 13.5224270000 F F F
15.7910000000 22.8099990000 0.5000000000 F F F
15.7910000000 22.8099990000 4.0090000000 F F F
17.1407080000 24.5376070000 8.8294550000 F F F
19.0748010000 23.4166380000 13.5330080000 F F F
17.5460000000 21.0550000000 2.2550000000 F F F
17.5490010000 21.0555570000 5.6819370000 F F F
17.1172080000 21.2449280000 8.7437760000 F F F
19.0820470000 18.2830710000 10.7319960000 F F F
19.3010010000 22.8099990000 0.5000000000 F F F
19.3010010000 22.8099990000 4.0090000000 F F F
19.1190310000 22.8530740000 7.2892860000 F F F
19.2458740000 23.0286110000 10.1854920000 F F F
21.0550000000 21.0550000000 2.2550000000 F F F
21.0564320000 21.0704650000 5.6651760000 F F F
21.4073380000 17.3520650000 8.9031610000 F F F
21.3034370000 20.4458290000 12.6349910000 F F F
22.8099990000 22.8099990000 0.5000000000 F F F
22.8099990000 22.8099990000 4.0090000000 F F F
23.1848740000 22.5793830000 7.2596770000 F F F
23.0406230000 22.4769640000 10.9122490000 F F F
8.5168070000 6.5985210000 15.2904970000 F F F
23.8628190000 14.0210440000 18.3940200000 F F F
7.6064610000 2.7838060000 19.8888830000 F F F
12.9280820000 0.2759530000 18.3390270000 F F F
14.9737650000 5.5922640000 17.7913120000 F F F
14.0207890000 1.8733730000 12.4844490000 F F F
12.5051770000 19.5514340000 19.9894250000 F F F
8.4891407332 10.1487359282 11.5912731756 T T T
8.1767790000 11.9251520000 15.6719650000 F F F
8.5514700000 11.6356910000 17.1000100000 F F F
1.2176190000 16.0408640000 18.9309200000 F F F
0.7116880000 18.2216450000 19.2968370000 F F F
2.0637390000 17.9109870000 19.9181400000 F F F
1.4454320000 2.9727900000 14.2383540000 F F F
4.9201890000 5.8977010000 13.0929020000 F F F
4.9616150000 5.7075900000 14.4426590000 F F F
13.2369820000 4.4964880000 12.7861010000 F F F
14.2339350000 10.1157940000 14.0541840000 F F F
14.2148510000 9.8815340000 12.6982190000 F F F
4.9790900000 21.8288760000 20.1996330000 F F F
4.3871650000 24.0230340000 20.4464160000 F F F
3.2987000000 23.1295280000 21.0428430000 F F F
5.8852040000 13.9193120000 18.9888810000 F F F
3.8497890000 12.9681600000 19.4560050000 F F F
4.6424700000 13.1602470000 20.7627660000 F F F
4.4305420000 17.6841690000 7.6809130000 F F F
6.5464510000 20.0114900000 16.5756980000 F F F
7.4209910000 19.0845960000 16.2069570000 F F F
4.3024320000 24.0423710000 16.0614290000 F F F
1.6545310000 19.7709220000 16.2141840000 F F F
0.6079710000 20.5964150000 16.2466150000 F F F
9.6399400000 18.7704670000 19.8631700000 F F F
8.2406230000 16.9848490000 19.5110490000 F F F
7.5446380000 18.0179590000 20.4040260000 F F F
16.1635910000 7.2034270000 16.9448360000 F F F
16.3910610000 10.1235080000 20.9458150000 F F F
16.4622660000 10.2376550000 19.6207870000 F F F
4.1095230000 17.0941290000 15.2518970000 F F F
2.9235460000 14.6623850000 13.4431240000 F F F
5.2492130000 16.1693080000 15.0330240000 F F F
24.4453170000 21.4328540000 21.0587700000 F F F
23.5943860000 23.2216850000 19.8853030000 F F F
22.9668750000 23.1734990000 21.2722640000 F F F
21.2058370000 1.9452160000 20.3864030000 F F F
22.2456970000 3.9676160000 20.0884340000 F F F
23.2832780000 2.9233030000 20.4719780000 F F F
12.8875720000 3.6313020000 18.6767730000 F F F
10.7805660000 3.0391760000 19.3117460000 F F F
11.7843960000 2.5403220000 20.3627710000 F F F
8.2319420000 5.8037270000 20.1468240000 F F F
9.6262270000 7.6046110000 19.8946110000 F F F
8.4762420000 7.9490780000 20.8341380000 F F F
8.8578320000 0.1386760000 20.6265040000 F F F
8.5446000000 22.4743640000 21.0008390000 F F F
9.9430800000 22.7029220000 20.4506860000 F F F
12.9220130000 0.3317350000 16.1277100000 F F F
10.1593710000 24.2858010000 13.9670440000 F F F
10.4982730000 22.9920600000 13.9009310000 F F F
20.0140460000 15.7754640000 5.9014900000 F F F
20.8530060000 19.0044870000 14.1701020000 F F F
21.6118050000 18.5399770000 15.2070910000 F F F
21.1268560000 13.4429940000 11.5864950000 F F F
20.4300050000 11.2436700000 15.2902990000 F F F
21.5626920000 10.5556940000 15.1876700000 F F F
1.5956340000 0.6554290000 17.6788150000 F F F
0.3924920000 0.7226330000 14.0928560000 F F F
0.3565320000 2.1227340000 13.9609200000 F F F
13.4913920000 16.7843990000 19.7545910000 F F F
14.3088500000 14.6495510000 19.6452260000 F F F
13.7505300000 14.9187930000 21.0469010000 F F F
9.5277850000 5.0654930000 12.7584340000 F F F
5.6235570000 1.2317480000 13.5377560000 F F F
6.1668390000 2.3439600000 12.9274610000 F F F
3.8169920694 10.1586145436 12.6768427347 T T T
0.9655470000 11.3150110000 14.9507050000 F F F
1.7050540000 11.2218160000 16.0985050000 F F F
18.1455220000 13.1410770000 20.4592040000 F F F
19.7482410000 12.1738360000 19.1342800000 F F F
20.1800020000 12.0858090000 20.6017220000 F F F
16.3536060000 2.1766990000 19.6926780000 F F F
17.5711900000 3.6124500000 21.0318170000 F F F
17.3944410000 4.2302060000 19.6370650000 F F F
10.9856880000 14.0192090000 16.0632720000 F F F
9.8649420000 14.3282920000 15.6241380000 F F F
6.9775520000 12.4329540000 15.3068080000 F F F
23.8995870000 11.0527750000 19.3549740000 F F F
24.4638510000 8.8218800000 19.2487540000 F F F
24.2367410000 9.2342540000 20.7160860000 F F F
21.6273850000 15.7706720000 19.5537490000 F F F
20.5811630000 17.7177970000 20.1838950000 F F F
19.6001600000 16.5547340000 20.2936460000 F F F
21.8923570000 4.0916280000 14.7141750000 F F F
19.9131720000 23.9782600000 15.6059980000 F F F
21.0660590000 23.7380940000 14.9609240000 F F F
19.9975620000 21.8436430000 19.0679000000 F F F
18.2326310000 21.9619270000 20.4642520000 F F F
18.2950090000 23.2155670000 19.5923730000 F F F
16.8828440000 14.1059330000 11.4057220000 F F F
12.3087560000 13.4186660000 11.0262590000 F F F
17.0654270000 13.4523140000 12.6085730000 F F F
17.5640310000 19.4567560000 17.5760120000 F F F
15.0419950000 17.1083630000 15.2172380000 F F F
14.8669330000 18.3981030000 14.6612570000 F F F
24.5379190000 4.8692400000 17.8170160000 F F F
24.0186460000 7.6264130000 15.2623240000 F F F
0.2658630000 6.8799340000 14.5066280000 F F F
15.9402660000 2.1140980000 15.6843860000 F F F
17.1431240000 8.1154710000 13.2194280000 F F F
17.6624780000 6.9147310000 12.8268370000 F F F
4.8096560000 3.2552990000 20.1731000000 F F F
3.3719850000 4.6998890000 19.1632710000 F F F
3.0224090000 4.5775650000 20.6405160000 F F F
8.8657880000 11.6106480000 14.8866230000 F F F
7.6430050000 11.4548510000 17.6937540000 F F F
9.0351990000 12.4652530000 17.6297500000 F F F
9.2436920000 10.7763200000 17.1217680000 F F F
0.6925640000 19.0886510000 18.6374430000 F F F
24.5114250000 18.3526190000 20.0557790000 F F F
2.9095680000 18.3879290000 19.4098580000 F F F
2.0660400000 18.1319310000 20.9878240000 F F F
4.3746210000 6.2737730000 15.1803580000 F F F
4.1167840449 6.6413861882 12.8582719336 T T T
5.6175640000 4.9540590000 14.9045010000 F F F
8.6222770000 24.5065070000 10.9029200000 F F F
15.0388720000 10.6033990000 14.6473830000 F F F
13.4064840000 9.7739750000 14.6959030000 F F F
15.1583670000 10.2465000000 12.2224930000 F F F
6.6098284739 12.2553463679 10.0840654830 T T T
5.0112490000 24.5304420000 21.1853860000 F F F
4.0223490000 0.1901510000 19.7248380000 F F F
3.0375800000 23.3722420000 22.0788910000 F F F
2.3972360000 23.0885800000 20.4219950000 F F F
2.8814080000 13.4793660000 19.4382960000 F F F
3.7431500000 11.9123120000 19.2003250000 F F F
4.2310410000 13.9390200000 21.4159740000 F F F
4.7712800000 12.2245250000 21.3139670000 F F F
6.8584790000 20.9346920000 17.0695000000 F F F
7.1179080000 18.1110090000 15.8340410000 F F F
8.4918000000 19.2577140000 16.2976720000 F F F
5.4754490000 19.8758530000 16.4299650000 F F F
0.2922690000 21.1501460000 15.3668490000 F F F
2.1247420000 19.4077750000 17.1289570000 F F F
2.1375610000 19.4288050000 15.2851830000 F F F
0.0533640000 20.7908670000 17.1630110000 F F F
7.7901350000 16.9129450000 18.5177330000 F F F
8.3084550000 15.9771360000 19.9405720000 F F F
6.5921350000 18.3904160000 20.0161120000 F F F
7.4101170000 17.6619050000 21.4305120000 F F F
15.6956650000 10.6971540000 21.5680610000 F F F
17.0665540000 9.4406090000 21.4556660000 F F F
15.9441780000 11.0681300000 19.1007870000 F F F
17.0356850000 9.5287190000 19.0305300000 F F F
0.7971390000 18.7607880000 13.1074570000 F F F
3.2886170000 15.1836860000 14.3927230000 F F F
5.5202200000 15.6385250000 15.9516770000 F F F
1.6970440000 14.2737710000 7.6587500000 F F F
24.3114930000 24.0367540000 19.7674120000 F F F
22.8508130000 23.2665570000 19.0885830000 F F F
23.0654900000 24.1097930000 21.8246930000 F F F
21.9199860000 22.8517760000 21.2570050000 F F F
22.3077950000 4.2428540000 19.0299610000 F F F
22.2978620000 4.8521820000 20.7310570000 F F F
24.1311930000 2.8768420000 19.7894090000 F F F
23.6493870000 3.0230570000 21.4991060000 F F F
10.1196030000 3.8325900000 19.6646220000 F F F
10.1829780000 2.2336150000 18.8764560000 F F F
11.6572840000 3.0164760000 21.3390700000 F F F
11.7948720000 1.4525850000 20.4923160000 F F F
10.5989500000 7.4868500000 20.3888730000 F F F
9.7106310000 8.2895410000 19.0461750000 F F F
8.7389300000 8.3986080000 21.7929370000 F F F
7.7182260000 8.5400370000 20.3156310000 F F F
8.5126320000 21.9282160000 21.9455300000 F F F
7.8655420000 22.0006580000 20.2847470000 F F F
10.7452710000 22.5655700000 21.1765400000 F F F
10.1568300000 22.1176150000 19.5562590000 F F F
10.2032670000 0.2653000000 14.9044210000 F F F
9.8842610000 0.2750350000 13.0618040000 F F F
10.7956860000 22.4584570000 14.8045250000 F F F
10.4584510000 22.4423070000 12.9534110000 F F F
21.2143710000 18.3659150000 16.2087240000 F F F
19.8853370000 19.3811150000 14.5848200000 F F F
22.7201440000 18.3505400000 15.1806040000 F F F
21.6593040000 20.9573110000 19.1131930000 F F F
19.9781910000 11.4308070000 16.2585910000 F F F
22.0893340000 10.2004720000 16.0708600000 F F F
22.0397510000 10.3397590000 14.2257450000 F F F
19.9228390000 11.6958280000 14.4265480000 F F F
1.3419770000 0.2690890000 14.3718610000 F F F
24.0359340000 0.1713230000 14.2485730000 F F F
2.3684920000 2.3935010000 14.4621600000 F F F
24.0209330000 2.4956420000 13.4708620000 F F F
13.7231950000 13.9039960000 19.0956290000 F F F
15.3692030000 14.3853870000 19.6721650000 F F F
12.9568740000 14.2236260000 21.3287570000 F F F
14.5298020000 14.9513750000 21.8146370000 F F F
7.5647060000 2.1870050000 10.2330690000 F F F
6.1558620000 0.6625820000 14.3114840000 F F F
4.5789810000 0.8483500000 13.4298100000 F F F
6.7876830000 2.8857050000 13.6789280000 F F F
3.3696276093 10.2360978614 13.6939664776 T T T
24.4784890000 11.0616240000 15.2014800000 F F F
1.2227510000 11.1360300000 17.0789680000 F F F
2.7956390000 11.0657880000 16.1530680000 F F F
19.5780170000 11.1842660000 18.6916040000 F F F
20.4625410000 12.7438960000 18.5272690000 F F F
20.3230950000 11.0450220000 20.9041360000 F F F
21.0510710000 12.6928890000 20.8635140000 F F F
17.0016660000 4.1140320000 21.8198300000 F F F
18.6182240000 3.5089200000 21.3188070000 F F F
16.9486700000 5.2297370000 19.6389090000 F F F
18.3251530000 4.2318210000 19.0604270000 F F F
8.9140120000 14.7755570000 15.9172760000 F F F
11.7440190000 13.8420560000 16.8062180000 F F F
6.1909240000 12.4394770000 16.0601570000 F F F
6.1253240000 16.7145010000 14.6654910000 F F F
23.7714940000 8.0676630000 18.8757670000 F F F
0.9178090000 8.4878120000 19.0482140000 F F F
23.4400300000 8.6774280000 21.2170780000 F F F
0.5951440000 9.2171080000 21.3062630000 F F F
20.8797340000 18.1400300000 21.1489700000 F F F
20.2342540000 18.5177360000 19.5275770000 F F F
19.1033830000 16.4677940000 21.2662350000 F F F
18.8526020000 16.5725920000 19.4928770000 F F F
21.3349990000 24.2695780000 14.0431210000 F F F
19.6386330000 23.4177960000 16.5044920000 F F F
19.2529190000 0.2369160000 15.3050520000 F F F
21.7995870000 23.0513970000 15.3867500000 F F F
17.4930010000 21.2398720000 20.1105040000 F F F
18.1135450000 22.1872350000 21.5231900000 F F F
17.3605150000 23.4224050000 19.0755150000 F F F
18.6558090000 24.1032300000 20.1145630000 F F F
13.1128140000 12.6922640000 10.6219870000 F F F
15.8000080000 13.9231240000 11.0824480000 F F F
17.9551570000 13.6319090000 13.2372580000 F F F
16.3732530000 12.7270980000 13.0516300000 F F F
15.4896780000 18.6929560000 13.7995830000 F F F
15.1594290000 17.0069220000 16.3122430000 F F F
14.8103480000 19.1818930000 15.4244470000 F F F
12.8188510000 20.6485620000 12.1892030000 F F F
1.1950220000 7.2965770000 14.1230660000 F F F
23.1001220000 7.2275370000 15.6952500000 F F F
0.0373800000 5.8294510000 14.2869930000 F F F
24.2658290000 8.6516440000 15.5368840000 F F F
16.5101260000 8.1323700000 14.1149220000 F F F
15.7698440000 3.9043540000 5.4989580000 F F F
17.4314560000 9.1395410000 12.8674860000 F F F
16.9172230000 6.1416450000 13.1327960000 F F F
3.4890650000 5.7262060000 18.8194640000 F F F
2.6640950000 4.1840500000 18.5096580000 F F F
3.3314450000 5.4453970000 21.2318610000 F F F
1.9690860000 4.3455230000 20.8096270000 F F F
8.8801630000 8.9568090000 11.1893010000 F F F
7.6918020000 5.1771190000 9.0503220000 F F F
8.1511058553 10.2594947672 12.8293095317 T T T
0.4101560000 17.0237790000 18.5159260000 F F F
2.1979130000 16.4628300000 19.7470620000 F F F
1.0592870000 14.8683200000 18.6050480000 F F F
0.4297830000 11.3520540000 8.6508260000 F F F
0.3445750000 3.3354530000 7.4592920000 F F F
2.8078780000 3.2821980000 11.0985070000 F F F
12.9029300000 7.5128520000 11.0549750000 F F F
12.2751130000 3.2887730000 5.6203560000 F F F
13.1936600000 5.4926310000 13.6373450000 F F F
5.2291870000 23.0769820000 19.7335170000 F F F
3.9013980000 21.8110980000 21.0141000000 F F F
5.6417460000 20.8552140000 19.9403520000 F F F
4.6937210000 13.6043180000 18.4505290000 F F F
5.9521620000 13.6023130000 20.3119170000 F F F
6.8058320000 14.4045210000 18.3819660000 F F F
8.8523280000 21.6075030000 8.7351620000 F F F
7.3919730000 19.4037970000 9.4459890000 F F F
6.8784770000 1.6940110000 5.8550800000 F F F
4.5472800000 0.0934960000 17.0121700000 F F F
2.0482320000 21.1472480000 12.8634300000 F F F
4.0756190000 23.4213140000 15.0805480000 F F F
9.5899690000 17.5215200000 19.3724160000 F F F
8.4760180000 19.1381430000 20.4221930000 F F F
10.5983060000 19.5145470000 19.7529730000 F F F
17.2121070000 7.5628730000 16.3257100000 F F F
16.0205880000 7.0803690000 18.2168030000 F F F
15.1401650000 6.7169190000 16.1951070000 F F F
3.8030850000 17.8063360000 14.1506720000 F F F
4.2799200000 17.6856350000 11.4282710000 F F F
3.5232340000 17.1481310000 16.3349440000 F F F
24.2912420000 21.9498410000 19.7984960000 F F F
23.7353210000 22.1501120000 21.9567190000 F F F
0.5352890000 20.4570220000 21.3125250000 F F F
20.9867930000 3.2838220000 20.3686020000 F F F
22.5440630000 1.6750690000 20.3782310000 F F F
20.3505380000 1.0997700000 20.4074490000 F F F
11.6219640000 3.5942410000 18.2576960000 F F F
13.0807000000 2.9571570000 19.8255340000 F F F
13.7627020000 4.2333360000 18.0864350000 F F F
9.2101590000 6.3208120000 19.3611040000 F F F
7.8661370000 6.6396380000 21.1030990000 F F F
7.8251440000 4.6724320000 19.9798170000 F F F
8.0526290000 23.8318170000 21.2439270000 F F F
9.9242150000 24.1183490000 20.0649150000 F F F
8.6568970000 1.3380870000 20.5642900000 F F F
13.1732230000 24.4538510000 14.9157520000 F F F
11.7903660000 0.3314850000 16.7111410000 F F F
13.9906000000 0.6994300000 16.8421400000 F F F
22.8739830000 20.7138850000 11.4669780000 F F F
24.4371910000 21.2304280000 7.6558500000 F F F
0.2262450000 23.1479040000 10.7327230000 F F F
21.9362420000 12.8798630000 12.4014670000 F F F
20.5474450000 9.1797450000 11.7270130000 F F F
22.5526620000 6.4365050000 11.0580340000 F F F
1.7262740000 24.4812320000 16.7880070000 F F F
0.2386560000 1.7341170000 10.5960650000 F F F
1.4510410000 1.3808950000 18.5861060000 F F F
14.1773580000 15.9376710000 18.9724200000 F F F
13.1701310000 16.2515010000 20.9390420000 F F F
13.2155610000 17.9188300000 19.4157930000 F F F
6.3600590000 5.1028490000 5.4515500000 F F F
8.4139490000 4.6356230000 12.2315660000 F F F
9.3799720000 6.0481950000 13.6778620000 F F F
6.2019328857 8.5767531078 9.8074043087 T T T
5.0416325724 9.7161067668 12.5746473527 T T T
3.0976585517 10.4032537583 11.6215372550 T T T
18.5001730000 12.8871830000 19.1639510000 F F F
19.0345160000 12.6128240000 21.3184290000 F F F
17.1405150000 13.7286480000 20.7754250000 F F F
17.0129490000 2.2686180000 20.8650170000 F F F
16.4589440000 3.3549640000 18.9831530000 F F F
15.7629650000 1.2024270000 19.3111490000 F F F
8.7059190000 13.8337460000 12.3118750000 F F F
6.6069450000 12.9162010000 14.0551010000 F F F
8.7802690000 13.9973660000 5.8338540000 F F F
24.2514810000 10.0705410000 18.5118620000 F F F
23.7845870000 10.6100530000 20.6240230000 F F F
23.7158360000 12.1928720000 18.9969950000 F F F
21.7636940000 17.1054270000 19.5625860000 F F F
20.4443540000 15.3858420000 20.1090000000 F F F
22.4428680000 15.0057160000 19.1100260000 F F F
21.1280920000 23.0547760000 10.3602380000 F F F
21.9461960000 4.0177260000 13.5484340000 F F F
22.6749720000 3.5689950000 9.1981020000 F F F
19.5760080000 21.3396270000 20.2027100000 F F F
19.3113530000 22.8404040000 18.5872020000 F F F
21.0698630000 21.4326070000 18.4461900000 F F F
11.4132410000 10.1217510000 9.5087110000 F F F
17.5539010000 12.2198090000 8.5793070000 F F F
15.5649890000 7.5486740000 9.4694440000 F F F
14.8743550000 15.9853210000 14.5409050000 F F F
16.6908360000 19.7668100000 16.8563980000 F F F
18.4292550000 19.1197190000 18.2950140000 F F F
1.0935950000 4.5532400000 17.2382710000 F F F
24.4558810000 5.7937950000 18.6695250000 F F F
23.4850820000 4.1541110000 17.4641700000 F F F
15.8128300000 3.2325160000 16.0153090000 F F F
18.5141990000 6.7354510000 9.9801330000 F F F
14.4183560000 3.8500740000 12.8112850000 F F F
4.6630100000 4.0161380000 19.0843030000 F F F
3.8295260000 3.4350800000 21.0723730000 F F F
5.7349250000 2.4676760000 20.3275610000 F F F
13.7606270000 11.0975660000 19.6269220000 F F F
13.9930040000 22.0477800000 20.3010190000 F F F
4.4745900000 8.7975030000 19.0153010000 F F F
15.4884800000 1.4249950000 10.1449910000 F F F
13.8021560000 17.2302200000 11.4285760000 F F F
22.6384910000 16.7905530000 11.0208430000 F F F
20.4345620000 7.7655030000 19.2307800000 F F F
13.0390470000 11.9389910000 18.4278050000 F F F
12.8430370000 11.6709060000 20.8161780000 F F F
11.9957770000 9.8051650000 19.2489780000 F F F
15.0152880000 12.4001980000 19.7777510000 F F F
11.8436060000 7.7939220000 14.7338710000 F F F
8.6188350000 8.3383690000 15.8038320000 F F F
12.7880170000 21.2061890000 21.1757710000 F F F
14.2492390000 23.0518910000 21.5319760000 F F F
15.0898240000 22.7675850000 19.3526030000 F F F
12.8295540000 23.1310200000 19.7099970000 F F F
13.5843830000 20.9918260000 19.0621190000 F F F
15.1013310000 20.9901940000 20.8627520000 F F F
4.9654550000 9.8166800000 17.7445520000 F F F
5.8711960000 7.9631000000 18.7321230000 F F F
4.0913700000 7.7593250000 20.2056960000 F F F
3.7143610000 7.8580930000 17.8994330000 F F F
3.1050910000 9.6788880000 19.2181680000 F F F
5.2640880000 9.7979820000 20.0419280000 F F F
18.1151080000 22.8527570000 5.7647450000 F F F
10.4983340000 22.8924530000 10.6383070000 F F F
18.2793710000 2.2332150000 12.6157260000 F F F
12.2587100000 6.1620350000 5.6915210000 F F F
20.3560920000 4.2046550000 11.0072940000 F F F
20.3023580000 19.7361030000 10.8865210000 F F F
10.6341710000 15.2101620000 7.5600900000 F F F
17.3008970000 17.6323790000 10.4448920000 F F F
17.9669200000 22.8733060000 8.7943040000 F F F
15.8416250000 21.1673960000 10.0923160000 F F F
10.2408570000 15.6562900000 10.3051920000 F F F
10.7424480000 20.1932160000 10.3250210000 F F F
19.4315970000 16.7628430000 11.9279290000 F F F
23.0888810000 13.6311200000 8.6446430000 F F F
0.4709010000 12.2896320000 12.0084080000 F F F
15.9505120000 21.1118390000 7.3409450000 F F F
24.2454310000 14.3642330000 13.7701040000 F F F
7.8657440000 8.7670120000 5.7595520000 F F F
21.6575700000 8.3550300000 18.3248570000 F F F
19.2996490000 8.6562530000 18.4597330000 F F F
19.7198900000 6.9562390000 15.2980920000 F F F
20.1738750000 6.3786250000 18.2344230000 F F F
19.0470160000 4.6992440000 16.1745960000 F F F
21.3785980000 1.4034790000 10.4652120000 F F F
