Li399 C105 H140 O105 P7 F42
1.00
24.564400 0.000000 0.000000
0.000000 24.564400 0.000000
0.000000 0.000000 60.000000
Li C H O P F 
406 210 280 210 14 84 
Selective
Cartesian
0.0000000000 0.0000000000 2.2550000000 F F F
0.0074410000 24.5619110000 5.6896180000 F F F
0.1589789503 0.1715589307 9.4234957947 T T T
0.3150705790 0.2828674084 11.7606211078 T T T
1.7550000000 1.7550000000 0.5000000000 F F F
1.7550000000 1.7550000000 4.0090000000 F F F
1.5494920168 2.0294368381 7.2909020588 T T T
24.5317043460 3.1335048842 9.2586539371 T T T
3.5090000000 0.0000000000 2.2550000000 F F F
3.5423680000 24.5421490000 5.6909690000 F F F
3.9461645594 0.2341015056 8.8507728191 T T T
2.9583515623 22.0505665558 13.5806039470 T T T
5.2640000000 1.7550000000 0.5000000000 F F F
5.2640000000 1.7550000000 4.0090000000 F F F
5.5853613764 1.7076994317 7.1406832745 T T T
6.8378207885 0.8768306558 11.0920445578 T T T
7.0180000000 0.0000000000 2.2550000000 F F F
7.0225220000 24.5339190000 5.6756400000 F F F
8.8557204541 1.4485808686 9.5092842692 T T T
7.0028265626 20.9948265898 9.0104093092 T T T
8.7730000000 1.7550000000 0.5000000000 F F F
8.7730000000 1.7550000000 4.0090000000 F F F
8.4543055671 1.7033916481 6.8206811867 T T T
8.0421953418 2.8155186934 11.8462215362 T T T
10.5280000000 0.0000000000 2.2550000000 F F F
10.5277830000 24.5335210000 5.6830690000 F F F
8.7738245940 22.6213512538 7.4301673782 T T T
11.0224755624 0.1287111136 10.5952954845 T T T
12.2820000000 1.7550000000 0.5000000000 F F F
12.2820000000 1.7550000000 4.0090000000 F F F
12.1996898854 1.9230799438 6.9064532631 T T T
11.1619984595 3.4461587466 11.9156443555 T T T
14.0370000000 0.0000000000 2.2550000000 F F F
14.0429490000 24.5299970000 5.6815280000 F F F
17.2811897567 21.0449466195 9.1088638451 T T T
15.1325547835 0.7048850413 15.1966200352 T T T
15.7910000000 1.7550000000 0.5000000000 F F F
15.7910000000 1.7550000000 4.0090000000 F F F
15.5927425768 1.8007328841 7.5428215077 T T T
15.4327269759 3.8784812712 11.4798141928 T T T
17.5460000000 0.0000000000 2.2550000000 F F F
17.5435080000 24.5324260000 5.6774750000 F F F
17.4808242289 1.1355396665 11.6325883151 T T T
17.8792480665 2.2978123921 14.2037454481 T T T
19.3010010000 1.7550000000 0.5000000000 F F F
19.3010010000 1.7550000000 4.0090000000 F F F
19.2372695311 1.5953782881 7.3526038230 T T T
21.1936862857 23.9880110038 8.8912953445 T T T
21.0550000000 0.0000000000 2.2550000000 F F F
21.0465170000 24.5562670000 5.6675930000 F F F
21.1524015132 21.2843300079 10.3034438637 T T T
21.0052541833 0.0134523198 11.5591803448 T T T
22.8099990000 1.7550000000 0.5000000000 F F F
22.8099990000 1.7550000000 4.0090000000 F F F
23.0867192906 2.3059204742 7.6357685713 T T T
23.0219635274 2.2849601660 10.6210844873 T T T
0.0000000000 3.5090000000 2.2550000000 F F F
0.0162700000 3.4887970000 5.6878570000 F F F
1.1794459316 2.9066106543 11.7168421596 T T T
2.1535672234 1.8893429106 10.0743996040 T T T
1.7550000000 5.2640000000 0.5000000000 F F F
1.7550000000 5.2640000000 4.0090000000 F F F
1.4413838389 4.7928056933 7.3539523580 T T T
2.9770835011 4.2826138658 12.6477042310 T T T
3.5090000000 3.5090000000 2.2550000000 F F F
3.5470380000 3.4828850000 5.6895110000 F F F
3.4608463182 4.1420577174 9.5577018772 T T T
4.5454975840 2.6190037743 11.4749977931 T T T
5.2640000000 5.2640000000 0.5000000000 F F F
5.2640000000 5.2640000000 4.0090000000 F F F
5.2860562652 5.2654495053 6.8988453219 T T T
5.8257809023 6.6471514050 9.4942016321 T T T
7.0180000000 3.5090000000 2.2550000000 F F F
7.0325220000 3.4883420000 5.6895560000 F F F
6.8966750799 4.0295030769 9.2806040294 T T T
6.4996553812 5.1265213422 12.4454929477 T T T
8.7730000000 5.2640000000 0.5000000000 F F F
8.7730000000 5.2640000000 4.0090000000 F F F
8.4966932546 5.5743135723 7.8168078971 T T T
8.9250797823 5.2387838933 10.4322545043 T T T
10.5280000000 3.5090000000 2.2550000000 F F F
10.5187240000 3.4719730000 5.6846380000 F F F
10.6538126483 3.3563584334 8.8803350303 T T T
11.4679336615 6.0593552319 14.2452386022 T T T
12.2820000000 5.2640000000 0.5000000000 F F F
12.2820000000 5.2640000000 4.0090000000 F F F
12.2854891317 4.7970167104 6.9129061537 T T T
11.9357062020 6.0329937150 11.1013009309 T T T
14.0370000000 3.5090000000 2.2550000000 F F F
14.0406830000 3.4759480000 5.6728270000 F F F
13.5859950194 3.0903628110 9.4057030672 T T T
14.7729347891 5.3436434567 14.6629609780 T T T
15.7910000000 5.2640000000 0.5000000000 F F F
15.7910000000 5.2640000000 4.0090000000 F F F
15.8239437406 5.8209390638 8.2630456402 T T T
17.3525171103 3.1014887334 9.2067753363 T T T
17.5460000000 3.5090000000 2.2550000000 F F F
17.5453230000 3.4856580000 5.6806360000 F F F
18.8960374739 5.5716931085 11.1890923419 T T T
21.5266620062 4.5318067934 16.5315707888 T T T
19.3010010000 5.2640000000 0.5000000000 F F F
19.3010010000 5.2640000000 4.0090000000 F F F
19.3767063858 6.0118189140 8.4657415675 T T T
19.0500957953 6.0378185426 14.3722473562 T T T
21.0550000000 3.5090000000 2.2550000000 F F F
21.0388660000 3.4978990000 5.6787780000 F F F
20.8609818547 3.0822765454 9.4122875324 T T T
20.1972386821 2.9316094273 12.0205793985 T T T
22.8099990000 5.2640000000 0.5000000000 F F F
22.8099990000 5.2640000000 4.0090000000 F F F
23.2696494960 4.6602000145 7.7762248871 T T T
22.1096294134 4.9915533750 10.2398163362 T T T
0.0000000000 7.0180000000 2.2550000000 F F F
0.0048850000 7.0095950000 5.6870440000 F F F
24.2657024857 6.7712371014 10.0796030762 T T T
20.5749415883 8.4547618552 13.3358617534 T T T
1.7550000000 8.7730000000 0.5000000000 F F F
1.7550000000 8.7730000000 4.0090000000 F F F
1.3466036013 9.5235938551 7.7596862260 T T T
4.5776353581 9.4231154401 10.6932071258 T T T
3.5090000000 7.0180000000 2.2550000000 F F F
3.5271270000 7.0103170000 5.6725140000 F F F
2.7850081618 7.0366455821 8.4298907376 T T T
0.0570890382 3.1625657930 16.2253268425 T T T
5.2640000000 8.7730000000 0.5000000000 F F F
5.2640000000 8.7730000000 4.0090000000 F F F
5.3084495814 8.8487125844 8.1393211043 T T T
6.4209006985 10.8489191658 13.3655009555 T T T
7.0180000000 7.0180000000 2.2550000000 F F F
7.0237870000 7.0181620000 5.6721060000 F F F
7.7393491688 7.6971525172 9.9020151837 T T T
3.0461472543 14.1507508592 8.7591848221 T T T
8.7730000000 8.7730000000 0.5000000000 F F F
8.7730000000 8.7730000000 4.0090000000 F F F
8.7766005733 9.0217528558 7.2411207386 T T T
9.3862951456 7.5288319000 12.5472343438 T T T
10.5280000000 7.0180000000 2.2550000000 F F F
10.5418270000 7.0227440000 5.6717400000 F F F
11.8962810643 9.0023870942 10.6794610357 T T T
11.0609027853 10.6466348691 18.5328291440 T T T
12.2820000000 8.7730000000 0.5000000000 F F F
12.2820000000 8.7730000000 4.0090000000 F F F
11.6403061158 8.6856835453 8.1648892750 T T T
13.1124450462 7.9308285577 12.8247181385 T T T
14.0370000000 7.0180000000 2.2550000000 F F F
14.0357120000 7.0207240000 5.6808810000 F F F
13.8662983093 6.6341590831 9.6437226764 T T T
13.4935473912 7.8174737482 15.7972818455 T T T
15.7910000000 8.7730000000 0.5000000000 F F F
15.7910000000 8.7730000000 4.0090000000 F F F
15.2175386375 8.6669227824 7.9289415966 T T T
14.5782146929 8.5368703777 10.7775841470 T T T
17.5460000000 7.0180000000 2.2550000000 F F F
17.5416220000 7.0178460000 5.6727670000 F F F
17.4236821512 7.8264502836 8.8139681214 T T T
19.1457357413 8.1208765351 11.0172819727 T T T
19.3010010000 8.7730000000 0.5000000000 F F F
19.3010010000 8.7730000000 4.0090000000 F F F
19.5527885859 8.8139930582 7.2161626567 T T T
16.7573085529 6.7331169186 10.6328557034 T T T
21.0550000000 7.0180000000 2.2550000000 F F F
21.0611610000 7.0054880000 5.6686990000 F F F
18.2762872732 8.4778457755 15.1267633359 T T T
22.7582353684 5.6651696366 12.6940296008 T T T
22.8099990000 8.7730000000 0.5000000000 F F F
22.8099990000 8.7730000000 4.0090000000 F F F
22.5870430587 8.5181481429 7.4873485554 T T T
21.9349830031 7.8955810531 10.9488474539 T T T
0.0000000000 10.5280000000 2.2550000000 F F F
0.0099680000 10.5321540000 5.6807810000 F F F
24.0050092524 9.9749681190 9.3699349255 T T T
2.3587922533 12.9390958357 14.3979168539 T T T
1.7550000000 12.2820000000 0.5000000000 F F F
1.7550000000 12.2820000000 4.0090000000 F F F
1.4770314165 12.2229981874 7.6295811402 T T T
1.5076863631 11.0442279541 12.6265226397 T T T
3.5090000000 10.5280000000 2.2550000000 F F F
3.5237710000 10.5310900000 5.6671820000 F F F
2.4125325447 10.8145439833 9.8663845553 T T T
5.7772996598 7.9919470778 12.2511305129 T T T
5.2640000000 12.2820000000 0.5000000000 F F F
5.2640000000 12.2820000000 4.0090000000 F F F
5.1609654379 12.0664329270 7.6186553623 T T T
5.0633854201 16.3519352468 10.0795703198 T T T
7.0180000000 10.5280000000 2.2550000000 F F F
7.0227640000 10.5332460000 5.6703950000 F F F
6.8343539372 10.3510238266 9.9011766440 T T T
7.2456088880 9.3245031021 16.2580537775 T T T
8.7730000000 12.2820000000 0.5000000000 F F F
8.7730000000 12.2820000000 4.0090000000 F F F
6.6262411955 13.8056633185 9.2862421054 T T T
10.2667829184 8.7897019789 15.7751531848 T T T
10.5280000000 10.5280000000 2.2550000000 F F F
10.5258190000 10.5402840000 5.6642260000 F F F
9.6566959796 10.1551626217 9.5574275775 T T T
11.4633486974 11.7095240622 10.2323696310 T T T
12.2820000000 12.2820000000 0.5000000000 F F F
12.2820000000 12.2820000000 4.0090000000 F F F
10.8980238223 14.1393501622 9.2251520968 T T T
8.8488819416 11.9825706060 11.9653791723 T T T
14.0370000000 10.5280000000 2.2550000000 F F F
14.0441200000 10.5400580000 5.6663530000 F F F
12.1600304538 11.2165590983 7.9537275571 T T T
13.2067432574 11.7453801644 12.0612202747 T T T
15.7910000000 12.2820000000 0.5000000000 F F F
15.7910000000 12.2820000000 4.0090000000 F F F
16.0915282360 12.3453446104 7.5891046717 T T T
13.5000234125 14.4251498390 12.2154154683 T T T
17.5460000000 10.5280000000 2.2550000000 F F F
17.5544240000 10.5353850000 5.6728710000 F F F
16.4451886752 12.1023217793 10.2952359487 T T T
18.7367912366 6.3582971556 16.8100013076 T T T
19.3010010000 12.2820000000 0.5000000000 F F F
19.3010010000 12.2820000000 4.0090000000 F F F
19.1199430034 12.6995405084 7.8250146699 T T T
20.6862924056 9.9361519643 9.8597138062 T T T
21.0550000000 10.5280000000 2.2550000000 F F F
21.0490570000 10.5389800000 5.6770280000 F F F
17.9940757196 10.6691254277 8.6541232540 T T T
21.1752535866 10.8355378031 12.2303005170 T T T
22.8099990000 12.2820000000 0.5000000000 F F F
22.8099990000 12.2820000000 4.0090000000 F F F
22.9158174077 12.0614184540 7.6603583395 T T T
24.2250665536 12.7133077807 13.4348222711 T T T
0.0000000000 14.0370000000 2.2550000000 F F F
0.0026890000 14.0260550000 5.6721610000 F F F
24.4501127324 14.7392132630 8.6787622097 T T T
4.5874657691 16.3794518848 12.8422571002 T T T
1.7550000000 15.7910000000 0.5000000000 F F F
1.7550000000 15.7910000000 4.0090000000 F F F
2.4575997015 16.5777264246 7.7135406723 T T T
2.3881425382 17.9796533040 13.0065490116 T T T
3.5090000000 14.0370000000 2.2550000000 F F F
3.5188510000 14.0587740000 5.6749930000 F F F
0.1660993668 12.3128088892 9.9924712817 T T T
1.2603196855 14.0920357600 12.0951582706 T T T
5.2640000000 15.7910000000 0.5000000000 F F F
5.2640000000 15.7910000000 4.0090000000 F F F
5.3131230624 15.9951958269 7.3569184905 T T T
5.0237097136 14.0602287350 14.1413329272 T T T
7.0180000000 14.0370000000 2.2550000000 F F F
7.0253500000 14.0575260000 5.6809850000 F F F
6.8768615551 13.5111738210 12.0524126561 T T T
3.8320581485 13.3943729392 11.7711019606 T T T
8.7730000000 15.7910000000 0.5000000000 F F F
8.7730000000 15.7910000000 4.0090000000 F F F
8.7721506363 15.3735277756 7.0400013828 T T T
10.5832698147 13.8767389366 11.7842973786 T T T
10.5280000000 14.0370000000 2.2550000000 F F F
10.5256680000 14.0526070000 5.6782800000 F F F
8.7681583960 12.5927987922 7.0441897923 T T T
11.0757803131 12.9744834975 14.2100555763 T T T
12.2820000000 15.7910000000 0.5000000000 F F F
12.2820000000 15.7910000000 4.0090000000 F F F
12.3231174457 15.6633326957 7.0463987847 T T T
12.1764158146 15.6813967479 10.6778847981 T T T
14.0370000000 14.0370000000 2.2550000000 F F F
14.0504640000 14.0578270000 5.6923680000 F F F
13.6880491440 13.8814222400 9.1341539352 T T T
13.3630245873 16.8060360197 13.6718551907 T T T
15.7910000000 15.7910000000 0.5000000000 F F F
15.7910000000 15.7910000000 4.0090000000 F F F
15.6355485127 15.7572544928 7.2282567229 T T T
15.9768162564 15.7308212600 13.0869786739 T T T
17.5460000000 14.0370000000 2.2550000000 F F F
17.5452360000 14.0471100000 5.6807460000 F F F
15.6425675379 15.8928130494 10.3694366499 T T T
17.3000382177 14.1766547882 9.1489620856 T T T
19.3010010000 15.7910000000 0.5000000000 F F F
19.3010010000 15.7910000000 4.0090000000 F F F
19.3453247947 15.6348529681 7.7683133117 T T T
18.0099529716 16.0094603515 11.1436804037 T T T
21.0550000000 14.0370000000 2.2550000000 F F F
21.0543880000 14.0362730000 5.6766680000 F F F
21.7572546704 13.9737953420 9.4861892713 T T T
18.8903403027 13.1948868420 10.8440208804 T T T
22.8099990000 15.7910000000 0.5000000000 F F F
22.8099990000 15.7910000000 4.0090000000 F F F
22.1246684836 15.6445370596 6.9098469235 T T T
24.4753223387 16.6069447282 12.3684324712 T T T
0.0000000000 17.5460000000 2.2550000000 F F F
24.5515740000 17.5656230000 5.6866620000 F F F
0.1298718948 17.4356772172 9.5180914006 T T T
22.6788944823 14.7404971593 12.2943797033 T T T
1.7550000000 19.3010010000 0.5000000000 F F F
1.7550000000 19.3010010000 4.0090000000 F F F
1.0876491776 19.7916114923 7.8583735521 T T T
1.0375887049 19.9250692788 14.0064624814 T T T
3.5090000000 17.5460000000 2.2550000000 F F F
3.4926290000 17.5735220000 5.6929290000 F F F
3.3393740343 17.9664708579 9.7825324266 T T T
1.4913022473 15.4913604677 14.3042195024 T T T
5.2640000000 19.3010010000 0.5000000000 F F F
5.2640000000 19.3010010000 4.0090000000 F F F
2.8584810087 15.9263290849 11.3567894602 T T T
2.4543480849 20.3797750725 11.2037746584 T T T
7.0180000000 17.5460000000 2.2550000000 F F F
7.0395680000 17.5650880000 5.6837700000 F F F
8.5759977297 19.7281888136 7.8485051852 T T T
8.3528748461 13.8827109462 14.0207024885 T T T
8.7730000000 19.3010010000 0.5000000000 F F F
8.7730000000 19.3010010000 4.0090000000 F F F
7.7160687395 17.3549179799 9.0539681556 T T T
6.0463279375 18.7095643840 8.0673382704 T T T
10.5280000000 17.5460000000 2.2550000000 F F F
10.5272400000 17.5635770000 5.6727550000 F F F
10.5133277213 16.7455647313 8.7470890751 T T T
8.7275809304 15.2752008442 11.1326472302 T T T
12.2820000000 19.3010010000 0.5000000000 F F F
12.2820000000 19.3010010000 4.0090000000 F F F
12.2217794060 19.2719945157 7.3211412896 T T T
12.0832655617 19.0343957988 10.7411717193 T T T
14.0370000000 17.5460000000 2.2550000000 F F F
14.0328000000 17.5617790000 5.6817040000 F F F
13.7839221807 17.2980066030 8.8223689871 T T T
13.8704720942 19.4519597982 12.8511276525 T T T
15.7910000000 19.3010010000 0.5000000000 F F F
15.7910000000 19.3010010000 4.0090000000 F F F
15.6785438227 19.4419241988 7.4017356144 T T T
15.7758362311 18.6206325995 10.3938881721 T T T
17.5460000000 17.5460000000 2.2550000000 F F F
17.5676920000 17.5607310000 5.6729040000 F F F
17.4759365758 17.3435100502 8.7136273183 T T T
21.4675137450 17.6835658429 12.5180016876 T T T
19.3010010000 19.3010010000 0.5000000000 F F F
19.3010010000 19.3010010000 4.0090000000 F F F
19.5186505017 19.0757233783 7.3270966316 T T T
19.4591958935 17.0820208059 13.7385325883 T T T
21.0550000000 17.5460000000 2.2550000000 F F F
21.0747730000 17.5434010000 5.6868160000 F F F
20.4912704589 15.5658033398 10.9509432381 T T T
22.2099629924 19.1963536228 10.4211835399 T T T
22.8099990000 19.3010010000 0.5000000000 F F F
22.8099990000 19.3010010000 4.0090000000 F F F
23.0982040319 19.8289160600 7.4875230791 T T T
24.2231069511 19.4684511582 11.9518862519 T T T
0.0000000000 21.0550000000 2.2550000000 F F F
24.5525750000 21.0769000000 5.6762920000 F F F
24.3786004379 21.6464983551 9.5545022720 T T T
0.4162921356 21.9331069586 12.1100591234 T T T
1.7550000000 22.8099990000 0.5000000000 F F F
1.7550000000 22.8099990000 4.0090000000 F F F
1.4782716773 22.4168813308 7.5165634727 T T T
1.9867725418 23.1578744170 10.3129530506 T T T
3.5090000000 21.0550000000 2.2550000000 F F F
3.5216820000 21.0557240000 5.6762720000 F F F
3.7783676550 19.8124866963 8.1008977681 T T T
4.6621151434 18.8221041885 12.8030273801 T T T
5.2640000000 22.8099990000 0.5000000000 F F F
5.2640000000 22.8099990000 4.0090000000 F F F
5.0722684769 22.6433064623 7.4026752355 T T T
4.8388897730 22.2893872407 10.3533743600 T T T
7.0180000000 21.0550000000 2.2550000000 F F F
7.0322330000 21.0430870000 5.6690990000 F F F
4.9834150000 18.6486320000 5.8730130000 F F F
5.7481915722 18.8261289741 10.4590130418 T T T
8.7730000000 22.8099990000 0.5000000000 F F F
8.7730000000 22.8099990000 4.0090000000 F F F
8.8167623409 22.9813181730 9.9853511136 T T T
10.6163285687 21.2558161872 8.9015589515 T T T
10.5280000000 21.0550000000 2.2550000000 F F F
10.5318270000 21.0482890000 5.6700010000 F F F
11.6664188395 21.6173619391 11.2129123851 T T T
8.8043828558 20.0141389844 10.2032315988 T T T
12.2820000000 22.8099990000 0.5000000000 F F F
12.2820000000 22.8099990000 4.0090000000 F F F
12.3885079530 22.8446404918 7.3608274093 T T T
13.8065696328 0.1009006632 9.2757146358 T T T
14.0370000000 21.0550000000 2.2550000000 F F F
14.0456410000 21.0452550000 5.6828970000 F F F
14.0426311368 20.9266826268 9.4191174339 T T T
12.4954562910 23.8054309318 13.5628121635 T T T
15.7910000000 22.8099990000 0.5000000000 F F F
15.7910000000 22.8099990000 4.0090000000 F F F
17.0374614647 24.4885843922 9.0644495320 T T T
18.8586767529 23.3996138865 13.5745192610 T T T
17.5460000000 21.0550000000 2.2550000000 F F F
17.5490010000 21.0555570000 5.6819370000 F F F
15.7660567715 22.7250796877 7.2667314302 T T T
19.1696802491 18.2839686705 10.7578622602 T T T
19.3010010000 22.8099990000 0.5000000000 F F F
19.3010010000 22.8099990000 4.0090000000 F F F
18.8858017113 22.8459638173 7.4353540918 T T T
19.2979440724 23.0493061253 10.5332444725 T T T
21.0550000000 21.0550000000 2.2550000000 F F F
21.0564320000 21.0704650000 5.6651760000 F F F
21.4055281016 17.2537615876 8.7026264959 T T T
21.5020601443 20.3416033637 12.6235417701 T T T
22.8099990000 22.8099990000 0.5000000000 F F F
22.8099990000 22.8099990000 4.0090000000 F F F
23.2045681923 22.5612123102 7.2714037466 T T T
22.8855349913 22.6342629848 10.9966985837 T T T
8.5920500193 6.3900240699 15.0913928036 T T T
23.9504576376 14.0422288574 18.9032978919 T T T
7.0072342141 3.8122545525 18.5532853559 T T T
13.3817539004 0.3581931137 18.3197826527 T T T
15.0033621765 5.2410206635 17.7775454886 T T T
13.9986339616 1.7677484328 12.5829048784 T T T
12.2690104505 19.4804279261 19.6809874853 T T T
10.5914584867 6.2654470219 23.6111818543 T T T
24.4054944814 15.7319587840 26.0468153445 T T T
8.5833181407 2.7122636243 26.2281326441 T T T
14.6341667168 24.2750102416 28.3329922631 T T T
13.0800825556 8.2712625724 28.3221410118 T T T
13.6572584261 6.6394788324 25.6419169023 T T T
12.3474636644 17.6930422565 25.5990990813 T T T
8.5277947807 9.9326409673 11.3087784088 T T T
7.9796098921 11.8864811467 15.5720541248 T T T
8.3976417338 11.7280197119 16.9955757313 T T T
1.2342103866 16.1024583737 18.8328831882 T T T
0.7540183981 18.2420575310 19.3725827435 T T T
2.1180118392 17.8723410377 19.9550514157 T T T
1.4603456944 3.0882269584 13.9863757559 T T T
4.7937396050 6.0733064761 13.0402032386 T T T
4.9663105073 5.8351944567 14.3720374816 T T T
13.1486221677 4.3578701893 12.8680167200 T T T
14.1985679944 10.1218175067 13.7957811110 T T T
14.3372062940 9.9727886285 12.4466617174 T T T
4.1959395273 21.5254138518 19.2052348043 T T T
5.7776817107 22.3290779008 20.6504307922 T T T
4.4860222723 22.0656221291 21.4136743457 T T T
5.8428212793 14.0468092240 18.9444809708 T T T
3.8267100932 13.0796296210 19.4870855843 T T T
4.6668933110 13.2656823054 20.7631355202 T T T
4.2687525026 17.7840216377 7.6709331563 T T T
6.4539837436 19.9623685702 16.3930284074 T T T
7.3710613895 19.0324752076 16.1440637555 T T T
4.3658464359 23.8666144911 15.9500575293 T T T
1.6591833313 19.7121488341 16.1937835231 T T T
0.5449578691 20.4403503533 16.1901016537 T T T
9.4774226921 19.1681715266 19.3326055962 T T T
8.0917506872 17.3570682949 19.5101739236 T T T
7.3151352617 18.6322503670 19.8626809777 T T T
16.1828169019 6.8670862780 16.5879774792 T T T
17.6069056912 9.1877350586 21.1182153476 T T T
17.0660440401 9.8587030647 20.0993279702 T T T
4.1319149604 17.0832963704 15.2146140885 T T T
3.0352863228 14.6926219519 13.1617388816 T T T
5.2037134437 16.0871976072 14.9447054857 T T T
23.4614305843 21.1021943064 20.5343826279 T T T
0.4954021417 21.7629915152 22.0050056469 T T T
0.5012093558 22.6813157902 20.7907612905 T T T
21.1565055885 2.0908961179 20.7680601593 T T T
22.0837104121 4.1307715785 20.2156623045 T T T
23.1284675801 3.2642639876 20.9309151516 T T T
12.7139898757 3.6103287561 18.5109141977 T T T
10.7302887731 2.9904090168 19.4080734149 T T T
11.8625260896 2.5367198969 20.3159367835 T T T
9.1104524159 5.8927900762 17.8590021821 T T T
9.7248158705 7.2195234727 19.6199557032 T T T
8.4155294068 6.5106532475 19.9739226474 T T T
7.8296610582 1.2458566777 17.7239126180 T T T
9.0224220965 23.8969410874 17.3699350752 T T T
9.0337851274 24.2242555916 18.8633727908 T T T
13.0899700065 0.5059664295 16.0188936915 T T T
10.2206300246 24.2327076829 13.8556185306 T T T
10.4134674170 22.9092832695 13.9423884981 T T T
20.0140460000 15.7754640000 5.9014900000 F F F
20.8507087285 18.7844234628 14.2054809895 T T T
21.6944331925 18.6016505843 15.2658193197 T T T
21.0048309977 13.4747941643 11.5628817453 T T T
20.3698207051 11.1940488570 15.1422339305 T T T
21.5107730566 10.5039843983 15.0784034924 T T T
1.5944785584 0.7316454255 17.7940448576 T T T
0.4111928302 0.8386018395 13.9510425856 T T T
0.3790284983 2.2292484870 13.7575375643 T T T
13.7686013766 17.3053307764 19.1703881134 T T T
14.9231274659 15.5845496307 20.0890652833 T T T
15.6146972568 16.8969493977 20.4440230873 T T T
9.5673168761 4.8624845959 12.6930111323 T T T
5.6296137200 1.0585649180 13.5383690057 T T T
6.2315478391 2.0394802844 12.7899633434 T T T
3.7663804368 10.1629227330 12.6926494667 T T T
1.0228933790 11.3230786598 14.7152475486 T T T
1.7783393531 11.1372872779 15.8340824019 T T T
18.2611972987 13.1207358578 20.4357874730 T T T
19.8851340379 12.1347540283 19.1645950536 T T T
20.3084450165 12.1176290227 20.6391303471 T T T
16.2217748944 2.2311911971 19.8043633384 T T T
17.5579980296 3.6286579998 21.0660211668 T T T
17.4209671436 4.1969341004 19.6507591161 T T T
10.9822061974 13.9968157950 16.0774723744 T T T
9.8446603253 14.2736491524 15.6432782252 T T T
6.7817818652 12.3515557603 15.1567470417 T T T
24.0256218131 10.9760590402 19.2257979742 T T T
0.0660183359 8.7659854158 19.1767793956 T T T
24.2231909960 9.1641123350 20.6040292849 T T T
21.7753186982 15.9739213107 19.4129295517 T T T
21.0111288614 17.7747568119 20.5514574566 T T T
19.9710869084 16.6637274974 20.6010910523 T T T
21.7414839616 3.8759881273 14.4101391270 T T T
19.9091205559 23.9562151020 15.6300180717 T T T
21.1002316688 23.7109307168 15.0615284484 T T T
20.0189783075 21.8864234663 19.0759853327 T T T
18.4422942825 22.1975500772 20.6598967691 T T T
18.3572136681 23.3201119053 19.6213637979 T T T
16.8064774568 14.2187312772 11.3550635308 T T T
12.3388418403 13.4576888767 10.7876623376 T T T
17.1417530885 13.6280994872 12.5645383351 T T T
17.4670438214 19.3195285126 17.6012935612 T T T
14.9838816348 17.2033211643 15.2000411147 T T T
14.7665893537 18.4739518214 14.6114523732 T T T
24.1679606186 4.8231470192 17.6947792399 T T T
24.0238314193 7.5755669222 15.2782240121 T T T
0.2799878684 6.9195776284 14.4538651672 T T T
16.0928271554 2.6607973115 15.3482935316 T T T
17.0190070923 8.0299564569 13.1744123413 T T T
17.5478181983 6.8700022123 12.7182892610 T T T
5.2122831771 4.0815585507 20.2356214859 T T T
3.3424054527 4.7897671277 19.1068091627 T T T
3.0195253492 4.6072106440 20.5900483499 T T T
8.4713323696 8.1970542100 23.1504910414 T T T
7.2162677946 10.0928286590 23.0066823884 T T T
7.6272010117 9.8581785472 24.4542993916 T T T
1.9102765862 16.7999739292 27.7359019556 T T T
2.7865612987 16.9691170806 29.8463633198 T T T
1.2500996556 16.9331277079 29.9305762547 T T T
6.1241011889 3.9972317424 25.3243232070 T T T
4.4186600380 5.2209951690 24.4308266145 T T T
5.7530970296 5.8638575214 24.0677984786 T T T
11.6825185613 8.5763072234 25.1069275081 T T T
13.3888588577 10.1052096044 25.1746420405 T T T
12.0679801058 10.8087795319 24.8698829108 T T T
5.8958885302 23.2923281729 29.6112208542 T T T
4.4783542992 0.1168040169 28.4676010368 T T T
4.1695572065 0.1839205312 29.9618802480 T T T
7.7393796826 13.9130133414 29.4247669141 T T T
6.6242653945 12.0055442232 30.0108989873 T T T
6.7042305592 12.0924838813 28.4868283572 T T T
10.3843806806 23.6321567115 23.7076084599 T T T
8.7825329029 22.0331070814 24.0850424512 T T T
9.9071342079 21.8960154176 25.1161811560 T T T
1.2437958201 21.9618679042 26.4133345914 T T T
0.1732927509 20.1578925211 25.4647855608 T T T
0.1947334095 20.0009718820 26.9817055976 T T T
10.6378612952 18.9123117881 27.6951410708 T T T
8.6209535311 19.2522626705 28.6967521750 T T T
9.6439821964 18.8115637770 29.7375758355 T T T
15.6167570129 9.6462051206 28.9472385368 T T T
16.9268560167 11.4239283595 28.3562358988 T T T
17.2592516259 10.9849618179 29.7879601256 T T T
5.8882558880 18.8400231761 23.6640258308 T T T
5.0499089176 16.7172224578 23.8827238549 T T T
5.2465763382 17.3330069555 25.2647416918 T T T
24.3671518851 21.0713951195 30.2100239548 T T T
23.9164259357 23.2010906793 29.5083139352 T T T
22.6159171943 22.4080685080 29.5775501562 T T T
20.7337973494 1.9888047542 29.2451029593 T T T
22.5072733547 3.2888510043 28.5694472138 T T T
22.5304338882 3.1400980902 30.0952167707 T T T
12.8139023778 5.3941180835 28.1629168991 T T T
12.1282296205 3.2425224019 28.4486030520 T T T
12.3506652004 3.8976456998 29.8145398138 T T T
8.6440763578 4.7918328927 28.2715875418 T T T
7.9875192649 6.9714926601 28.3086077214 T T T
8.3788534325 6.5352695208 29.7203940871 T T T
9.5717056156 0.3419734097 27.7358170955 T T T
10.1679935859 24.3480526849 29.8593230773 T T T
9.7704653277 23.0881945743 29.0957916575 T T T
14.8805132136 0.7889023682 25.6671726841 T T T
14.7371152973 1.6168027341 23.5430469546 T T T
13.4357331757 1.9103005002 24.3014586360 T T T
21.3529193791 22.2982766972 25.7739005510 T T T
20.7586187312 21.0867377558 23.9119047104 T T T
20.8141105175 20.1542614497 25.1379016969 T T T
20.8652780912 10.9619397594 24.8257310773 T T T
22.0234730905 12.6779692010 25.8108130543 T T T
20.5162636631 12.9284332859 25.9617873409 T T T
3.3132656808 0.9588982397 21.9372066734 T T T
3.6489693987 1.1318155957 24.2000400027 T T T
2.1643439901 1.3215791816 23.8895232663 T T T
12.7220114989 15.2934129060 27.2665473482 T T T
12.6771756580 13.4986945249 28.6614325511 T T T
12.1244086462 14.7178670233 29.3857123051 T T T
9.6171394247 3.5173200573 23.5642325155 T T T
8.7980267151 2.0702768768 21.9929575077 T T T
8.1124365749 1.8000263352 23.3221685750 T T T
4.6999735400 12.2093072110 24.2344078171 T T T
2.8582756549 11.3354926192 23.1631113938 T T T
2.4032919568 12.2312080437 24.3248146033 T T T
16.1861161311 15.4302784215 29.6191221189 T T T
15.9746135142 16.9067188133 27.8733679483 T T T
15.7103966449 17.6337830039 29.1870623395 T T T
15.6748416856 2.2375581877 29.4006970552 T T T
16.7605549751 3.9948126133 28.4332889970 T T T
16.8729165543 4.0976429876 29.9558850381 T T T
10.3219932170 11.9196036214 20.8137686605 T T T
9.4415536873 14.0395305824 20.7347349469 T T T
9.7299893621 13.6513731487 22.1936197626 T T T
0.4849027153 13.1686442427 27.8071174478 T T T
0.9158237784 11.0119292416 28.4130753800 T T T
0.0890665795 11.6941971918 29.5047729969 T T T
21.8736755359 16.4776299105 27.8014657885 T T T
20.3435342823 16.4352207397 29.5010575016 T T T
20.7131113398 17.8863639442 29.1887362980 T T T
20.9421452164 3.7340848875 24.1838732707 T T T
20.4625687399 1.7035304964 25.1417226612 T T T
19.2936529195 2.1297521737 24.2487189763 T T T
18.3676895864 20.8657836375 28.2600059470 T T T
18.7009024673 22.6363554274 29.6679874841 T T T
18.5441301329 23.1498548782 28.2390131173 T T T
14.6033483774 12.2640503006 22.4224718434 T T T
16.2065392534 13.1254025364 23.7901588180 T T T
14.8541341595 13.6673254384 24.2165716040 T T T
15.8639183119 18.0406823495 24.1421095831 T T T
15.6828735688 20.2681399656 23.6835936089 T T T
15.9401843692 20.0735356464 25.1741211659 T T T
1.0174346445 6.7101953527 23.8836062319 T T T
24.0411451021 7.2863147162 25.4840009570 T T T
24.1200963860 8.3977464336 24.4287964985 T T T
16.6325219119 6.7580371435 25.5457510656 T T T
18.8645099100 6.6866443648 25.0945969642 T T T
18.3574496571 8.1224996034 24.9798307087 T T T
1.8455212490 3.2974504290 30.2187514024 T T T
3.1766899140 5.1123685453 29.7173248996 T T T
1.7025022220 5.5250168933 29.6518356662 T T T
8.7066786508 11.6036058402 14.8046315290 T T T
7.5417491914 11.4686696489 17.6311474846 T T T
8.7818726884 12.6531861571 17.4390689725 T T T
9.1972210201 10.9816517663 17.0816785564 T T T
0.7503750430 19.1764349356 18.8105289365 T T T
24.5160616189 18.2408666622 20.1189768449 T T T
2.9624489481 18.3660756995 19.4617201775 T T T
2.1728920314 18.0035827548 21.0401066419 T T T
4.5381278997 6.4563429896 15.1729642039 T T T
3.9742330437 6.8078767224 12.8981060985 T T T
5.5913295921 5.0179120204 14.7767440873 T T T
8.4062232562 0.1324424365 10.6310804001 T T T
15.0118437268 10.4379838283 14.4719253374 T T T
13.2622654482 9.9445327334 14.3532333243 T T T
15.4190714280 10.0808528835 12.1725362102 T T T
6.5184815012 12.1727117275 10.0878658855 T T T
6.5642699977 21.6004361546 20.8770587978 T T T
6.1527111608 23.3495514687 20.7801578096 T T T
4.6349730024 21.4338320632 22.2908789614 T T T
3.9546465554 22.9888290901 21.6723688195 T T T
2.9082069611 13.6714783119 19.4905984698 T T T
3.6063555447 12.0293564303 19.2737299078 T T T
4.1919131231 13.9280635378 21.4938890637 T T T
4.9583555370 12.3251333920 21.2370839219 T T T
6.7211630871 20.9585154248 16.7482688594 T T T
7.0902805598 18.0207351619 15.8618616279 T T T
8.4405977492 19.2324750625 16.2260446128 T T T
5.3866231144 19.7735884048 16.2883794620 T T T
0.1932880507 20.9624049670 15.2895063535 T T T
2.0865746338 19.3030111948 17.0996059128 T T T
2.2536874737 19.4887993453 15.2975601181 T T T
24.5188348641 20.6309732245 17.0810426459 T T T
7.6887198661 16.8080950491 18.6554260505 T T T
8.2036830617 16.6884740081 20.3681899766 T T T
6.4979915147 18.8478299952 19.1654627707 T T T
6.9461903005 18.6509718518 20.8911459386 T T T
17.7609101713 9.6465826335 22.0931772889 T T T
17.8727967960 8.1365282568 21.0111790695 T T T
16.6834671057 10.8731428747 20.2189180746 T T T
16.9466965164 9.3861725544 19.1236847981 T T T
0.6172628728 18.3952574283 13.2333065699 T T T
3.4507156392 15.1595316318 14.1264778402 T T T
5.3989933898 15.4638538259 15.8259429832 T T T
1.5180407577 14.1800053450 7.6357067199 T T T
0.4309982446 22.2736683236 22.9674672055 T T T
1.3370078271 21.0600103000 22.0062593930 T T T
0.0399306458 23.6570000213 20.9849098084 T T T
1.4881007149 22.8052808690 20.3402006661 T T T
22.3628801667 4.3648834323 19.1846560930 T T T
21.8652880034 5.0469981469 20.7695549158 T T T
24.0163385373 3.0732622253 20.3168773776 T T T
23.4137844474 3.6632284563 21.9113664228 T T T
9.9715140939 3.5711199112 19.9358154679 T T T
10.2692493017 2.1861576344 18.8290837191 T T T
12.0222563471 3.2087814016 21.1641729399 T T T
11.8063008389 1.4988862067 20.6500449971 T T T
10.5333646933 7.0056948717 20.3254542913 T T T
9.5986673924 8.2955169625 19.4678294129 T T T
8.4829385138 5.8672006409 20.8518041561 T T T
7.5601200992 7.1879868374 20.0443735586 T T T
8.6285577940 22.9010487543 17.1568896636 T T T
10.0049710011 24.0599394591 16.9038754934 T T T
8.4667956554 23.5170800963 19.4764858519 T T T
10.0452058515 24.3375228754 19.2600044010 T T T
10.4138977195 0.3281698972 14.7041491807 T T T
9.8929194291 0.1210294570 12.9140745177 T T T
10.7523333466 22.4630546456 14.8809893729 T T T
10.2373309850 22.2626616579 13.0820274661 T T T
21.3686495359 18.7334409541 16.3089309899 T T T
19.9567033326 19.3552180020 14.5769315275 T T T
22.7603255661 18.3147889061 15.2090423897 T T T
21.7072623377 20.9302412401 19.0864715530 T T T
19.9027488968 11.3724797588 16.1068154071 T T T
22.0052553430 10.1437290121 15.9780128913 T T T
22.0299194358 10.2854779635 14.1377516208 T T T
19.8873582456 11.6610104153 14.2777097765 T T T
1.3433361675 0.4004360025 14.3086578232 T T T
24.0661044284 0.2531225588 14.0462890459 T T T
2.2834227865 2.5018401990 14.4632949811 T T T
24.0423816060 2.5990204252 13.2131761247 T T T
14.3495880050 15.1796180386 20.9304359368 T T T
15.5899087870 14.8249699630 19.6810789114 T T T
15.7352455086 17.0459289441 21.5196770849 T T T
16.5669516651 17.0558757508 19.9260086296 T T T
7.4406870355 2.4484382875 10.1300255720 T T T
5.9905403294 0.7911096938 14.5433316532 T T T
4.7217791844 0.4719487707 13.2850511103 T T T
6.8198401812 2.6756277695 13.5085135741 T T T
3.3055407298 10.2530469001 13.6975459837 T T T
24.5165267499 11.2305769113 15.0118832925 T T T
1.3525781861 11.2497442792 16.8420882882 T T T
2.8358803061 10.8198586473 15.8621479202 T T T
19.6867614629 11.1371531604 18.7572616509 T T T
20.6005433271 12.6590544524 18.5248987301 T T T
20.5260676193 11.1161883836 21.0270823323 T T T
21.1540587740 12.7805380007 20.8467632154 T T T
17.0929230468 4.2535136591 21.8362854753 T T T
18.5949871383 3.4064698238 21.3262661663 T T T
17.0516685757 5.2257465809 19.6040090269 T T T
18.3399655228 4.0981235684 19.0638533397 T T T
8.9244011373 14.8150182589 15.9048341545 T T T
11.8753505586 13.9803211552 16.6868998524 T T T
5.9824761985 12.4746166421 15.8988145435 T T T
6.1292545728 16.6184280514 14.6955616995 T T T
24.0424770677 7.9431797157 18.7612420929 T T T
1.1343215076 8.5570195241 19.0881872074 T T T
23.3307298837 8.6480451462 20.9731679026 T T T
0.4737007276 9.0679656353 21.3260165152 T T T
21.5958133902 17.8727502406 21.4732018925 T T T
20.6278761199 18.7443169498 20.2334869891 T T T
19.6312142963 16.4110008838 21.6076401819 T T T
19.1242398603 16.8568549076 19.9378431172 T T T
21.5468024586 24.4037124295 14.3478389264 T T T
19.5106201591 23.2759035015 16.3871980415 T T T
19.4028453964 0.3531789944 15.4981683940 T T T
21.6826739981 22.8398963644 15.3770042395 T T T
17.6081571355 21.4927706731 20.5967661023 T T T
18.5777501192 22.5667851210 21.6781351333 T T T
17.3655361138 23.4479377216 19.1856778962 T T T
18.7753682743 24.2664286529 19.9775020717 T T T
13.0523360458 12.6572107500 10.3704778570 T T T
15.7574492414 13.9038495946 11.0466516005 T T T
18.0849708805 13.8432842102 13.0839530734 T T T
16.4917332697 12.9343756607 13.1183573835 T T T
15.3624192982 18.7223887282 13.7169086434 T T T
15.1147330738 17.1336809200 16.2919429342 T T T
14.7402611199 19.2866429674 15.3452530848 T T T
13.0304741705 20.6948702494 11.8793827989 T T T
1.1876282447 7.3830404212 14.0619331697 T T T
23.1505151905 7.1026594532 15.7390292063 T T T
0.1252351706 5.8550140844 14.2415672670 T T T
24.2402376827 8.5923794036 15.6017084353 T T T
16.2534484072 8.0649728710 13.9595759381 T T T
15.7698440000 3.9043540000 5.4989580000 F F F
17.3544316788 9.0378802540 12.8550453140 T T T
16.8756085544 6.0365813487 13.0222340829 T T T
3.3772410316 5.8376979027 18.8011344509 T T T
2.6770063891 4.2231267982 18.4499797392 T T T
2.6341523041 5.5024080660 21.0820206635 T T T
2.3604075657 3.7538073793 20.7849671510 T T T
7.4877756785 11.0828622090 22.6378205155 T T T
6.1596967036 9.8970355964 22.8065367715 T T T
8.4371925375 10.5182701020 24.7845221205 T T T
6.7952681699 9.8797160738 25.1575351827 T T T
3.2684826033 16.1049612391 30.3184222952 T T T
3.2098642785 17.9007526875 30.2341939410 T T T
0.8677629052 16.0590078407 30.4699464578 T T T
0.8219295325 17.8600405417 30.3250183736 T T T
3.9331603512 4.7253340419 23.5879730054 T T T
3.7266217856 5.8991181615 24.9227944790 T T T
5.8796077715 6.0345875560 22.9960531312 T T T
5.9536622163 6.7759196450 24.6334288721 T T T
13.9562880039 10.5446366689 25.9976364635 T T T
14.0241253456 9.9483664736 24.2946122833 T T T
11.6762787526 11.3719055695 25.7207429793 T T T
12.0685933167 11.4141028660 23.9605811071 T T T
4.9858510349 1.0165430185 28.0928263489 T T T
3.6028620067 24.4451678960 27.8521590564 T T T
4.1192327640 1.1998753647 30.3581895828 T T T
3.2581747184 24.2016654667 30.2340465391 T T T
7.3157815754 11.2652249955 30.4287890292 T T T
5.6138080663 11.8324511935 30.3939579803 T T T
7.1334774254 11.1986190644 28.0271175611 T T T
5.7425519260 12.3255610099 28.0147828913 T T T
7.8363931850 22.3773644995 24.5183895507 T T T
8.6143410800 21.1255375352 23.4990413671 T T T
9.5485533542 21.9262683460 26.1467439352 T T T
10.5352159505 21.0180847968 24.9447482818 T T T
23.7321701041 20.1161539227 25.0342456880 T T T
0.8298444784 19.4476612299 24.9514205229 T T T
23.7869983615 20.1669583101 27.4607664075 T T T
0.6047858093 19.0466990384 27.3114528645 T T T
8.0683263678 20.1569951087 28.9603740644 T T T
7.9251754889 18.4495874947 28.4272967089 T T T
9.9669621267 19.6209478542 30.3984016965 T T T
9.3305740355 17.9411424042 30.3168569767 T T T
17.7886376099 11.3816859696 27.6847364742 T T T
16.4534198203 12.4101019368 28.3149860756 T T T
18.2512585014 10.5308359299 29.8777639616 T T T
17.1270332418 11.7918162125 30.5122049206 T T T
3.9939899261 16.6523694011 23.5919859287 T T T
5.5433321811 15.7479365267 23.7697158159 T T T
4.3407286888 17.3195490144 25.8728784441 T T T
6.0828385574 16.8935436035 25.8235884446 T T T
23.8821522592 24.1600602742 30.0348634827 T T T
24.2658429788 23.3615177669 28.4819717992 T T T
22.0037391014 22.6782174971 30.4491327876 T T T
22.0273699217 22.4695362045 28.6578042696 T T T
23.4235020304 2.9344756325 28.0892658155 T T T
22.2788449750 4.3058499808 28.2333630103 T T T
23.3943628886 2.5774962502 30.4617465882 T T T
22.4600288799 4.0962698757 30.6207962146 T T T
11.1035545773 2.9134834694 28.3035430410 T T T
12.8398910384 2.4488247745 28.2150615393 T T T
11.4210408355 4.0774487338 30.3605623117 T T T
13.0709825261 3.3689939380 30.4441170567 T T T
8.7205524292 7.6340810268 27.8489139783 T T T
6.9891069327 7.4065219744 28.2278748070 T T T
9.1589584030 7.1479866373 30.1717718354 T T T
7.5257438691 6.4467932551 30.4023397631 T T T
11.1457929229 24.2617212497 30.3416303239 T T T
9.4039698372 0.1107893440 30.5773898734 T T T
10.6330482399 22.4698334046 28.8302362871 T T T
8.9925132108 22.5066745242 29.5969017256 T T T
15.3367496779 2.5121299008 23.3478742969 T T T
14.5921981629 1.0556593904 22.6172260946 T T T
13.1568940821 2.9678173456 24.3027612216 T T T
12.5969519436 1.2867707308 23.9788201171 T T T
19.7605420904 21.1402942883 23.4617296381 T T T
21.4947642319 20.8374768087 23.1388224262 T T T
19.8414693166 19.7284414797 25.4102010155 T T T
21.5499011209 19.3490643645 25.0349304183 T T T
22.5501903043 12.6576573060 26.7677474286 T T T
22.5189738854 13.3790905640 25.1316934208 T T T
20.1774822955 12.8969055252 27.0029387302 T T T
20.1935895250 13.8665101910 25.4990113802 T T T
3.8562185842 0.1639963138 24.6741793738 T T T
4.0745534823 1.9506854627 24.7868505032 T T T
1.5246282234 0.6539570960 24.4761583199 T T T
1.8319917210 2.3633204395 23.9933816242 T T T
12.0199841130 12.6338470614 28.7047894512 T T T
13.6932047973 13.2377658980 28.9820240426 T T T
11.0328514216 14.7097439532 29.4877107908 T T T
12.6005693967 14.9019475934 30.3515038516 T T T
8.1032195422 2.2559168548 21.1718707047 T T T
9.5366625053 1.3029442128 21.7427910962 T T T
7.0884210940 2.1846313887 23.3528155249 T T T
8.1473159137 0.7484679073 23.6127797928 T T T
2.5652730701 11.7239520057 22.1765127470 T T T
2.5284790052 10.2966526973 23.2657652578 T T T
1.7425198565 13.0513599719 24.0322140679 T T T
1.9591651178 11.6672328892 25.1495743207 T T T
16.9427159333 17.1702043485 27.4339492763 T T T
15.1849965552 17.0299442688 27.1326315790 T T T
16.3165852290 18.5343299083 29.3060926004 T T T
14.6513473774 17.8709572623 29.3507974942 T T T
17.6924009575 3.6695493893 27.9549598993 T T T
16.3695832922 4.8958666504 27.9561646908 T T T
17.9006638508 4.1789234094 30.3178129822 T T T
16.2502241513 4.8943628630 30.3830336736 T T T
10.0937000438 14.8402600310 20.3698652259 T T T
8.3899982675 14.2665980848 20.5450319861 T T T
10.4412865483 14.3220167051 22.6850489527 T T T
8.8227768742 13.5434167795 22.7960230462 T T T
0.4735973758 10.0795204071 28.0587415947 T T T
1.9641534386 10.8478140217 28.6786102392 T T T
23.6136308789 11.3518888025 29.5171212571 T T T
0.5253651898 11.6282690056 30.5057791272 T T T
19.2679603439 16.2461229233 29.4682286793 T T T
20.7605493826 16.0639801729 30.4445164035 T T T
19.9047872403 18.4366142675 28.6964592710 T T T
21.0852384260 18.4425677615 30.0528839504 T T T
20.8893609220 0.7338864933 24.8752326102 T T T
20.2184599700 1.7219527211 26.2066640619 T T T
19.1933730369 1.5183860453 23.3439398942 T T T
18.3383653325 2.1774638943 24.7817448413 T T T
17.8230933011 22.8281487964 30.2936935137 T T T
19.6039031151 23.0052113223 30.1645886415 T T T
17.7662769940 23.9076565164 28.1337458449 T T T
19.4829531557 23.5151379706 27.8097442029 T T T
16.8039847226 12.7262417542 24.6125104869 T T T
16.7946118071 13.8382892516 23.2044947690 T T T
14.4810305749 13.2204734278 25.1468112652 T T T
14.8246473672 14.7571766235 24.2827233215 T T T
16.3673248552 20.9870564911 23.2223572008 T T T
14.6463043889 20.5305019347 23.4466445098 T T T
16.9835244364 20.2684373692 25.4554074990 T T T
15.2690800961 20.6237594860 25.8371040319 T T T
23.0448098121 6.8471831773 25.5738079946 T T T
24.4233409582 7.6055950939 26.4572638287 T T T
23.2123244364 8.4843460066 23.8236949072 T T T
24.3823793745 9.3725588634 24.8473345983 T T T
19.6968765868 6.5783928715 25.7928332181 T T T
19.1070010789 6.2093396350 24.1386201079 T T T
18.6579778468 8.7514954481 25.8240942518 T T T
18.6227580451 8.6144403066 24.0461487014 T T T
3.7554104927 5.7077618940 30.4313204158 T T T
3.6638402951 5.1210007906 28.7364230008 T T T
1.4142297204 6.2042829649 30.4624137325 T T T
1.4288262338 5.9500173362 28.6805414590 T T T
8.9421644789 8.6868371726 11.1775601883 T T T
7.5379182158 5.7861487249 9.3797746116 T T T
8.0272769077 10.2923968473 12.4399079666 T T T
0.4914371205 17.1485744123 18.4498027404 T T T
2.2102500643 16.4423754801 19.6820502076 T T T
1.0260200226 14.9532908706 18.4685800284 T T T
0.8708929541 10.9668474685 8.8987903864 T T T
0.2790756121 3.3846338615 7.4611065657 T T T
2.8980275061 3.2819125369 11.0622443739 T T T
12.9162344166 7.5263444073 10.9825571864 T T T
12.2751130000 3.2887730000 5.6203560000 F F F
13.1060851376 5.4469958412 13.6180275619 T T T
5.3859273767 22.1702362673 19.2597100722 T T T
3.6747843866 21.3380347227 20.4509008434 T T T
3.6536458567 21.1781264469 18.1892915028 T T T
4.6813759632 13.5901360232 18.4286628651 T T T
5.8767527238 13.9186739843 20.2965442924 T T T
6.7535957758 14.5032519559 18.2953350278 T T T
8.7965476435 21.4783026437 8.8607144017 T T T
7.3392450262 19.1183975245 9.3830455207 T T T
6.8784770000 1.6940110000 5.8550800000 F F F
4.8162715579 24.4739941945 16.8259093712 T T T
1.7863196955 20.9831115278 12.7804617993 T T T
3.9357965283 23.2611396605 15.0272905623 T T T
9.4062347141 17.8418035336 19.1427158186 T T T
8.3014107009 19.6874912442 19.7344514587 T T T
10.4662097767 19.8432233594 19.1454309726 T T T
17.2208241437 7.2039012232 15.9024033054 T T T
16.2741497597 6.5745521893 17.8217321912 T T T
15.0122630120 6.7137017030 15.9720834170 T T T
3.8537327342 17.8682076761 14.1632456115 T T T
4.3584375287 17.5837583661 11.3616417775 T T T
3.5751823165 17.1678711946 16.3086719474 T T T
23.8312539085 20.9956208160 21.8177150929 T T T
24.2191570496 21.9645973304 19.8414714918 T T T
22.5238438330 20.4436264254 20.0873028909 T T T
20.8856612435 3.3048187919 20.2106560372 T T T
22.4476918300 1.9969590239 21.1488019175 T T T
20.3265509972 1.2258769864 20.9071055323 T T T
11.4073773316 3.8859752994 18.4739375417 T T T
13.0251691160 2.6847505209 19.4329490016 T T T
13.5257860307 4.1510071367 17.7837004911 T T T
10.0805106102 6.6706896249 18.3044024693 T T T
8.1719639798 5.6339735404 18.8016013411 T T T
9.0344699637 5.4516747455 16.7202983861 T T T
8.0817693136 0.3078550344 16.8116989386 T T T
8.3624059744 0.9562735320 18.9285663774 T T T
7.2079104600 2.2725660512 17.5150348626 T T T
13.3155744290 0.3607724224 14.6860966336 T T T
12.0089325355 0.1991167185 16.5861200379 T T T
14.1065474416 0.9790856953 16.6857370710 T T T
22.9797400269 20.7564031389 11.3119718551 T T T
24.4515017016 21.2344961358 7.6736054873 T T T
0.1697889849 23.1874250436 10.7009464420 T T T
21.8784738308 12.8560977822 12.2655938310 T T T
20.6933011910 9.1284585030 11.5835757102 T T T
22.8836081810 6.4019657688 11.1097299079 T T T
1.8373651682 24.5555265030 16.8578697955 T T T
0.2929165089 1.7449351079 10.4992044562 T T T
1.3528996575 1.4193181359 18.6630088889 T T T
13.9644444679 15.9786433335 19.0612750520 T T T
14.6789933605 17.8999480967 19.9580753030 T T T
12.8594966683 17.9048260380 18.6279159090 T T T
6.3600590000 5.1028490000 5.4515500000 F F F
8.3365810532 4.6286870989 12.3006026352 T T T
9.6683140866 5.8768639453 13.5702034008 T T T
5.9695066572 8.5519010174 9.8615887661 T T T
4.9838968486 9.7224913263 12.5937204261 T T T
3.0463135265 10.3596786333 11.6282590613 T T T
18.6483766485 12.8786061718 19.1610271362 T T T
19.1560409334 12.6354010662 21.3317084350 T T T
17.2504529437 13.6956878425 20.7429487684 T T T
16.8372599940 2.3691383780 21.0020602076 T T T
16.4161314134 3.3425857941 19.0277414712 T T T
15.5969907055 1.2649022086 19.4644613504 T T T
8.7562191885 13.7977701832 12.2134592447 T T T
6.4869347379 12.7435181159 13.8665538644 T T T
8.7802690000 13.9973660000 5.8338540000 F F F
24.3721639526 9.9853839900 18.4011986052 T T T
23.8914517295 10.5787446311 20.4960564730 T T T
23.8628449131 12.1320453255 18.8666299400 T T T
21.9287967696 17.2937834524 19.5211474460 T T T
20.6969262667 15.5169743307 20.0671434770 T T T
22.5220997928 15.2443669761 18.7833338445 T T T
21.1318910440 23.1273355295 10.4763507557 T T T
21.7544671590 3.9252604180 13.2269931734 T T T
22.6338561226 3.5227916260 9.1926441862 T T T
19.6600820879 21.4684923393 20.2785664168 T T T
19.2488483604 22.8300283381 18.5584822343 T T T
21.0037309307 21.4620939122 18.4187619695 T T T
11.4655789523 10.1358100649 9.3005390173 T T T
17.5161874522 12.3704834769 8.8599658781 T T T
15.5531537301 7.4469085900 9.3088430287 T T T
14.8905429170 16.0603675983 14.5631115010 T T T
16.7821710679 19.8611889052 16.8215068443 T T T
18.1926053214 18.7870924607 18.3611186654 T T T
0.7738370695 4.3400142395 17.4420240467 T T T
23.9240946507 5.7990390781 18.4329329599 T T T
23.1694505457 4.1443823243 17.0840508216 T T T
15.8749252690 3.7257399247 15.7944752336 T T T
18.5078876590 6.7875619872 9.8527499940 T T T
14.2609549947 3.6866924631 12.9713029179 T T T
4.7091183263 4.2479940031 19.0012638984 T T T
4.3257858850 4.3026141345 21.1995174547 T T T
6.3823836298 3.7669477374 20.4101295693 T T T
8.0112037232 9.1030175875 22.2740455823 T T T
8.1683214135 8.4989323109 24.4178079806 T T T
9.0803064508 7.1943673740 22.8090254018 T T T
3.0669902822 16.9054799989 28.4197845568 T T T
0.8363831906 16.8115601515 28.5441576745 T T T
1.8190724710 16.7304365086 26.5284073042 T T T
4.8048674446 4.1887072746 25.3978646318 T T T
6.7271099835 4.8585564270 24.4865761011 T T T
6.7124740622 3.1116378113 25.9190190055 T T T
12.9367519352 8.7762947917 25.6144486140 T T T
11.1446496680 9.6941655390 24.6446204492 T T T
11.1855521894 7.4690220367 25.0837738291 T T T
5.4096537691 23.5708893747 28.3731704958 T T T
5.3047194618 24.0681393910 30.5550737278 T T T
6.7496160182 22.4731554700 29.8431457698 T T T
7.0601946346 13.3136028955 30.4423996123 T T T
7.6026012501 13.2057393569 28.2724118721 T T T
8.3678331540 14.9347692762 29.5336551495 T T T
9.2669902785 23.0724146611 23.1867607282 T T T
10.7258813031 23.0770538680 24.8853787089 T T T
10.9725096108 24.5439345770 23.1730899592 T T T
0.6894056264 21.5001363819 25.2588652947 T T T
1.0890180284 21.0628538513 27.4166880204 T T T
1.7848468160 23.0349417296 26.5176325324 T T T
9.4487048136 19.5328493377 27.5330924863 T T T
10.7870274900 18.4189362909 28.9289941282 T T T
11.4657081132 18.8209692489 26.8132073951 T T T
15.9549558825 10.4345732057 27.9088285799 T T T
16.2647150192 9.9526244608 30.0714024555 T T T
14.7967313149 8.7537449970 28.8545544891 T T T
5.7063690673 17.6630306733 22.9971335191 T T T
5.5809162427 18.7153159544 24.9726347165 T T T
6.2726379958 19.8534266946 23.1353651732 T T T
0.2921458696 22.3361768281 30.1935978904 T T T
23.0782564825 21.0461098426 29.7526128119 T T T
0.4118197300 20.0988173156 30.5706676253 T T T
21.4167187573 2.4271677416 28.1552065679 T T T
21.3359684201 2.3727271716 30.3902674242 T T T
19.7198310090 1.3374515710 29.1904254561 T T T
12.3758289481 4.3327879326 27.5048333991 T T T
12.9168770528 5.2104699871 29.4770749742 T T T
13.1218352914 6.4447669584 27.5944397721 T T T
7.9944499698 5.7215276391 27.5607323981 T T T
8.9307471120 5.2014951380 29.5165076465 T T T
8.9502101199 3.6953072606 27.8399418225 T T T
10.2537016082 0.7887025918 28.8094038312 T T T
9.1878344812 23.6290383262 27.8717376647 T T T
9.3178366557 1.0184968686 26.7600019094 T T T
15.4848904798 0.7696634558 24.4656903623 T T T
13.7644077635 1.5316442118 25.6739353251 T T T
15.3160819349 0.2006327842 26.6385561208 T T T
21.0773437764 22.3921604897 24.4493703617 T T T
21.2355868703 21.0187116638 26.2173382993 T T T
21.6604972812 23.2251490421 26.4784563113 T T T
22.0962308635 11.3589303671 25.2186034892 T T T
19.9049710600 11.8325705779 25.2420947032 T T T
20.6472189000 9.9717724407 24.1728175168 T T T
4.2701684676 1.1431363099 22.8893000057 T T T
2.0656816652 0.9520157980 22.4903151235 T T T
3.5313948943 0.8073839695 20.7660196827 T T T
12.7538972520 13.9520684661 27.2715599107 T T T
12.4836590165 15.8071083170 28.4839386839 T T T
12.9000837257 15.9725455983 26.2703363297 T T T
9.5257083804 3.3237962689 22.2436793806 T T T
8.9330177070 2.5737429703 24.2557309878 T T T
10.2286201815 4.4141702683 24.1039005682 T T T
4.3023420503 11.3534819068 23.2464793502 T T T
3.6425970868 12.8151410424 24.8118654464 T T T
5.8562002380 12.4071487439 24.5139573469 T T T
16.0175272896 15.5066251535 28.2707011091 T T T
16.1223619057 16.6589871546 30.1844221825 T T T
16.3622261090 14.3978155709 30.2177384259 T T T
15.7818988594 2.9289159839 28.2497187493 T T T
16.3351309482 2.8218016438 30.4107006350 T T T
15.0243040984 1.2167769575 29.5145600757 T T T
9.7747373434 12.8296382784 19.9907499057 T T T
10.3452136368 12.3297099697 22.0899242760 T T T
10.7417312139 10.8462202553 20.4258685584 T T T
0.8827431418 11.9802033007 27.3271733032 T T T
0.1140951402 13.0951554547 29.1022647277 T T T
0.4690079664 14.1910528785 27.1604182436 T T T
20.9644712590 15.6889918237 28.4157385564 T T T
21.8115825050 17.7493637443 28.2335875168 T T T
22.6368490148 16.0837916345 26.9467927052 T T T
21.4713964690 2.7211635433 24.9007798325 T T T
19.6464715426 3.4757680526 23.8389455080 T T T
21.5266571326 4.7426745405 23.8726196564 T T T
18.8203455858 21.1973687254 29.4945162525 T T T
18.1344429067 21.9644187530 27.5077948203 T T T
18.2191352291 19.7315336700 27.8707544423 T T T
15.8466976753 12.0223683464 22.9182509094 T T T
13.9801152995 13.2414863442 23.1350808806 T T T
14.1014686855 11.6751955343 21.5018401063 T T T
15.9668458205 18.9588433802 23.1390686740 T T T
15.6968569886 18.6513430229 25.3388232516 T T T
15.9177139543 16.8513692555 23.9743598503 T T T
0.3685622622 6.2625813460 24.9765770552 T T T
0.6358100139 7.9751536986 23.5606437266 T T T
1.8238420613 6.0726332268 23.2572202691 T T T
17.7126167653 5.9757583198 25.6575785207 T T T
16.9086370709 7.9682713456 25.0419786491 T T T
15.5131862403 6.4088343129 25.8787364419 T T T
3.1294491054 3.7455956254 30.1998717238 T T T
0.9834542332 4.2826428965 29.8349859548 T T T
1.5093061441 2.1824611300 30.5159348966 T T T
14.3055332532 10.4527474786 18.5108920482 T T T
13.3072162312 22.5041008683 19.8927949056 T T T
4.6478258601 8.8589416184 18.8715882787 T T T
15.5455339749 1.6438027622 10.2058261603 T T T
13.8556614164 17.3677552702 11.3905289897 T T T
22.6980939181 16.5642637549 10.6302736609 T T T
20.2881254180 7.9403940015 18.9536842104 T T T
10.7995706704 9.8313834366 29.2302073943 T T T
13.8108859744 21.8333198247 29.3231881966 T T T
3.9766836647 8.6770749128 26.7772449258 T T T
13.4205356278 6.1501458576 22.2176065839 T T T
11.5813236343 17.9657796660 22.8394549850 T T T
24.1302736070 15.7343329213 23.1114383917 T T T
20.8789754708 8.7233171237 28.7816594795 T T T
12.9187139872 11.3313502152 18.5667414264 T T T
15.2147253870 11.6502101520 17.9639502105 T T T
10.7551565812 9.5870845336 17.2250138884 T T T
13.9477402728 9.7346058113 17.0590372518 T T T
11.9495924491 7.7935884066 14.7786317244 T T T
8.4417981187 8.2236729832 15.3355202732 T T T
12.6269857450 22.1303587353 21.3133166537 T T T
13.0980251019 24.1601736917 20.1790479466 T T T
13.9939333195 22.9209758403 18.4310004550 T T T
11.8367439702 22.4924900349 19.1628286133 T T T
13.5197859418 20.8959987784 19.5204542125 T T T
14.7836848095 22.5513083140 20.5763481902 T T T
5.1729204865 9.8703648478 17.6375619443 T T T
5.9899621606 7.9167770844 18.5879229319 T T T
4.1694634825 7.8293170716 20.0618499792 T T T
3.8049372158 7.9803403470 17.7663731976 T T T
3.3194640607 9.8137436701 19.1179608499 T T T
5.4821404329 9.7563755579 19.9629967891 T T T
18.1151080000 22.8527570000 5.7647450000 F F F
10.5187686688 22.9443793942 10.6951229207 T T T
18.5611824707 2.2419264564 12.6081622133 T T T
12.2587100000 6.1620350000 5.6915210000 F F F
20.2994889914 4.3554738741 10.7703924395 T T T
20.4227108296 19.7064847096 10.9786021123 T T T
10.6075620785 15.1388059398 7.6279009011 T T T
17.2921881582 17.5856919462 10.5465917848 T T T
17.1907748855 22.7540154249 8.4674226470 T T T
15.7331290337 20.1081454414 9.2665892854 T T T
10.3091118817 15.8023098176 10.3410510651 T T T
10.6179603274 20.1080978182 10.5766576601 T T T
19.5108721098 16.7746796677 11.9371870176 T T T
23.4473051470 13.1737882372 9.0586573204 T T T
0.4794624246 12.3472814214 11.8104376383 T T T
15.8267174669 21.0709786581 6.4487477478 T T T
24.3264843644 14.8172892574 13.1706412069 T T T
7.8657440000 8.7670120000 5.7595520000 F F F
21.6511012567 8.4647397252 18.2709623701 T T T
19.3120675319 8.5498140375 17.7565509060 T T T
19.8653449050 7.6710856124 14.7883361476 T T T
20.3195380301 6.4341194404 18.2079426933 T T T
19.5745684491 5.0356634605 15.8639150080 T T T
21.3900443561 1.7445584142 11.2639149858 T T T
12.1266035108 10.0984397048 28.2003142716 T T T
11.7791959971 10.1189181181 30.4957787248 T T T
9.5497770349 9.4770835453 30.2034766214 T T T
11.2849215107 8.2112825701 29.2491600765 T T T
9.9025495435 9.5184155566 27.8986452845 T T T
10.3858357584 11.4037104042 29.1511790059 T T T
13.1527866110 23.0051437605 28.2576915080 T T T
12.3339327778 21.1741345471 29.5160712489 T T T
14.5197874597 20.7900798674 30.3236595892 T T T
13.5341151178 22.9022778137 30.5295845737 T T T
15.2995617164 22.6090524048 29.0420840041 T T T
14.1021785957 20.8825934193 28.0269819551 T T T
4.3836187206 8.5297693374 25.1839583153 T T T
4.2430064343 7.0516391935 26.9897862932 T T T
3.5868989801 8.8237091967 28.3625384897 T T T
2.3995950683 8.3608371456 26.4070781304 T T T
3.7217574258 10.2841152275 26.5684320293 T T T
5.5718934664 8.9610192330 27.1386180189 T T T
13.5214699623 6.4456963357 20.6191013109 T T T
15.0196499655 6.2775580998 22.4380340818 T T T
13.2211147723 5.7928618610 23.8828117515 T T T
13.5629734204 4.5285787883 21.9480414701 T T T
11.7437137587 5.9796812834 22.0669694376 T T T
13.1946297156 7.7239073732 22.5702273877 T T T
12.5839439822 16.7640080023 22.3686351129 T T T
10.4019811661 17.3817763918 21.8792893803 T T T
10.6229086104 19.1868322693 23.3297648952 T T T
12.1821687008 18.9306366679 21.6202900541 T T T
12.8060948990 18.5496125760 23.8589631163 T T T
11.0657973178 17.0386024793 24.1211613183 T T T
23.9351338418 16.9175329832 24.2980093756 T T T
24.3573557677 14.6482957075 24.3942056546 T T T
24.3408157008 14.5161158947 22.0426230207 T T T
1.1782203341 16.0363060104 23.1092915020 T T T
23.9032863569 16.8346244842 21.9334069395 T T T
22.5230574519 15.4316281089 23.1701155565 T T T
19.3071912468 8.2316862604 28.6779132220 T T T
20.5012129054 10.0291342879 27.8191867154 T T T
22.4460537114 9.2484626456 28.8283299312 T T T
21.2252164608 7.8471352079 27.4177799688 T T T
21.2577656777 7.4337344276 29.6979060657 T T T
20.5321191839 9.6117520412 30.1053206498 T T T
