Li399 C105 H140 O105 P7 F42
1.00
24.564400 0.000000 0.000000
0.000000 24.564400 0.000000
0.000000 0.000000 60.000000
Li C H O P F 
406 210 280 210 14 84 
Selective
Cartesian
0.0000000000 0.0000000000 2.2550000000 F F F
0.0074410000 24.5619110000 5.6896180000 F F F
0.1589790000 0.1715590000 9.4234960000 F F F
0.3150710000 0.2828670000 11.7606210000 F F F
1.7550000000 1.7550000000 0.5000000000 F F F
1.7550000000 1.7550000000 4.0090000000 F F F
1.5494920000 2.0294370000 7.2909020000 F F F
24.5317040000 3.1335050000 9.2586540000 F F F
3.5090000000 0.0000000000 2.2550000000 F F F
3.5423680000 24.5421490000 5.6909690000 F F F
3.9461650000 0.2341020000 8.8507730000 F F F
2.9583520000 22.0505670000 13.5806040000 F F F
5.2640000000 1.7550000000 0.5000000000 F F F
5.2640000000 1.7550000000 4.0090000000 F F F
5.5853610000 1.7076990000 7.1406830000 F F F
6.8378210000 0.8768310000 11.0920450000 F F F
7.0180000000 0.0000000000 2.2550000000 F F F
7.0225220000 24.5339190000 5.6756400000 F F F
8.8557200000 1.4485810000 9.5092840000 F F F
7.0028270000 20.9948270000 9.0104090000 F F F
8.7730000000 1.7550000000 0.5000000000 F F F
8.7730000000 1.7550000000 4.0090000000 F F F
8.4543060000 1.7033920000 6.8206810000 F F F
8.0421950000 2.8155190000 11.8462220000 F F F
10.5280000000 0.0000000000 2.2550000000 F F F
10.5277830000 24.5335210000 5.6830690000 F F F
8.7738250000 22.6213510000 7.4301670000 F F F
11.0224760000 0.1287110000 10.5952950000 F F F
12.2820000000 1.7550000000 0.5000000000 F F F
12.2820000000 1.7550000000 4.0090000000 F F F
12.1996900000 1.9230800000 6.9064530000 F F F
11.1619980000 3.4461590000 11.9156440000 F F F
14.0370000000 0.0000000000 2.2550000000 F F F
14.0429490000 24.5299970000 5.6815280000 F F F
17.2811900000 21.0449470000 9.1088640000 F F F
15.1325550000 0.7048850000 15.1966200000 F F F
15.7910000000 1.7550000000 0.5000000000 F F F
15.7910000000 1.7550000000 4.0090000000 F F F
15.5927430000 1.8007330000 7.5428220000 F F F
15.4327270000 3.8784810000 11.4798140000 F F F
17.5460000000 0.0000000000 2.2550000000 F F F
17.5435080000 24.5324260000 5.6774750000 F F F
17.4808240000 1.1355400000 11.6325880000 F F F
17.8792480000 2.2978120000 14.2037450000 F F F
19.3010010000 1.7550000000 0.5000000000 F F F
19.3010010000 1.7550000000 4.0090000000 F F F
19.2372700000 1.5953780000 7.3526040000 F F F
21.1936860000 23.9880110000 8.8912950000 F F F
21.0550000000 0.0000000000 2.2550000000 F F F
21.0465170000 24.5562670000 5.6675930000 F F F
21.1524020000 21.2843300000 10.3034440000 F F F
21.0052540000 0.0134520000 11.5591800000 F F F
22.8099990000 1.7550000000 0.5000000000 F F F
22.8099990000 1.7550000000 4.0090000000 F F F
23.0867190000 2.3059200000 7.6357690000 F F F
23.0219640000 2.2849600000 10.6210840000 F F F
0.0000000000 3.5090000000 2.2550000000 F F F
0.0162700000 3.4887970000 5.6878570000 F F F
1.1794460000 2.9066110000 11.7168420000 F F F
2.1535670000 1.8893430000 10.0744000000 F F F
1.7550000000 5.2640000000 0.5000000000 F F F
1.7550000000 5.2640000000 4.0090000000 F F F
1.4413840000 4.7928060000 7.3539520000 F F F
2.9770840000 4.2826140000 12.6477040000 F F F
3.5090000000 3.5090000000 2.2550000000 F F F
3.5470380000 3.4828850000 5.6895110000 F F F
3.4608460000 4.1420580000 9.5577020000 F F F
4.5454980000 2.6190040000 11.4749980000 F F F
5.2640000000 5.2640000000 0.5000000000 F F F
5.2640000000 5.2640000000 4.0090000000 F F F
5.2860560000 5.2654500000 6.8988450000 F F F
5.8257810000 6.6471510000 9.4942020000 F F F
7.0180000000 3.5090000000 2.2550000000 F F F
7.0325220000 3.4883420000 5.6895560000 F F F
6.8966750000 4.0295030000 9.2806040000 F F F
6.4996550000 5.1265210000 12.4454930000 F F F
8.7730000000 5.2640000000 0.5000000000 F F F
8.7730000000 5.2640000000 4.0090000000 F F F
8.4966930000 5.5743140000 7.8168080000 F F F
8.9250800000 5.2387840000 10.4322550000 F F F
10.5280000000 3.5090000000 2.2550000000 F F F
10.5187240000 3.4719730000 5.6846380000 F F F
10.6538130000 3.3563580000 8.8803350000 F F F
11.4679340000 6.0593550000 14.2452390000 F F F
12.2820000000 5.2640000000 0.5000000000 F F F
12.2820000000 5.2640000000 4.0090000000 F F F
12.2854890000 4.7970170000 6.9129060000 F F F
11.9357060000 6.0329940000 11.1013010000 F F F
14.0370000000 3.5090000000 2.2550000000 F F F
14.0406830000 3.4759480000 5.6728270000 F F F
13.5859950000 3.0903630000 9.4057030000 F F F
14.7729350000 5.3436430000 14.6629610000 F F F
15.7910000000 5.2640000000 0.5000000000 F F F
15.7910000000 5.2640000000 4.0090000000 F F F
15.8239440000 5.8209390000 8.2630460000 F F F
17.3525170000 3.1014890000 9.2067750000 F F F
17.5460000000 3.5090000000 2.2550000000 F F F
17.5453230000 3.4856580000 5.6806360000 F F F
18.8960370000 5.5716930000 11.1890920000 F F F
21.0277160000 4.1531990000 16.2773740000 F F F
19.3010010000 5.2640000000 0.5000000000 F F F
19.3010010000 5.2640000000 4.0090000000 F F F
19.3767060000 6.0118190000 8.4657420000 F F F
19.0500960000 6.0378190000 14.3722470000 F F F
21.0550000000 3.5090000000 2.2550000000 F F F
21.0388660000 3.4978990000 5.6787780000 F F F
20.8609820000 3.0822770000 9.4122880000 F F F
20.1972390000 2.9316090000 12.0205790000 F F F
22.8099990000 5.2640000000 0.5000000000 F F F
22.8099990000 5.2640000000 4.0090000000 F F F
23.2696490000 4.6602000000 7.7762250000 F F F
22.1096290000 4.9915530000 10.2398160000 F F F
0.0000000000 7.0180000000 2.2550000000 F F F
0.0048850000 7.0095950000 5.6870440000 F F F
24.2657020000 6.7712370000 10.0796030000 F F F
20.5749420000 8.4547620000 13.3358620000 F F F
1.7550000000 8.7730000000 0.5000000000 F F F
1.7550000000 8.7730000000 4.0090000000 F F F
1.3466040000 9.5235940000 7.7596860000 F F F
4.5776350000 9.4231150000 10.6932070000 F F F
3.5090000000 7.0180000000 2.2550000000 F F F
3.5271270000 7.0103170000 5.6725140000 F F F
2.7850080000 7.0366460000 8.4298910000 F F F
24.0862340000 3.0788760000 15.8044600000 F F F
5.2640000000 8.7730000000 0.5000000000 F F F
5.2640000000 8.7730000000 4.0090000000 F F F
5.3084500000 8.8487130000 8.1393210000 F F F
6.4209010000 10.8489190000 13.3655010000 F F F
7.0180000000 7.0180000000 2.2550000000 F F F
7.0237870000 7.0181620000 5.6721060000 F F F
7.7393490000 7.6971530000 9.9020150000 F F F
3.0461470000 14.1507510000 8.7591850000 F F F
8.7730000000 8.7730000000 0.5000000000 F F F
8.7730000000 8.7730000000 4.0090000000 F F F
8.7766010000 9.0217530000 7.2411210000 F F F
9.3862950000 7.5288320000 12.5472340000 F F F
10.5280000000 7.0180000000 2.2550000000 F F F
10.5418270000 7.0227440000 5.6717400000 F F F
11.8962810000 9.0023870000 10.6794610000 F F F
8.3156110000 10.4629450000 19.0165910000 F F F
12.2820000000 8.7730000000 0.5000000000 F F F
12.2820000000 8.7730000000 4.0090000000 F F F
11.6403060000 8.6856840000 8.1648890000 F F F
13.1124450000 7.9308290000 12.8247180000 F F F
14.0370000000 7.0180000000 2.2550000000 F F F
14.0357120000 7.0207240000 5.6808810000 F F F
13.8662980000 6.6341590000 9.6437230000 F F F
13.1258580000 6.9825390000 15.9892810000 F F F
15.7910000000 8.7730000000 0.5000000000 F F F
15.7910000000 8.7730000000 4.0090000000 F F F
15.2175390000 8.6669230000 7.9289420000 F F F
14.5782150000 8.5368700000 10.7775840000 F F F
17.5460000000 7.0180000000 2.2550000000 F F F
17.5416220000 7.0178460000 5.6727670000 F F F
17.4236820000 7.8264500000 8.8139680000 F F F
19.1457360000 8.1208770000 11.0172820000 F F F
19.3010010000 8.7730000000 0.5000000000 F F F
19.3010010000 8.7730000000 4.0090000000 F F F
19.5527890000 8.8139930000 7.2161630000 F F F
16.7573090000 6.7331170000 10.6328560000 F F F
21.0550000000 7.0180000000 2.2550000000 F F F
21.0611610000 7.0054880000 5.6686990000 F F F
18.2762870000 8.4778460000 15.1267630000 F F F
22.7582350000 5.6651700000 12.6940300000 F F F
22.8099990000 8.7730000000 0.5000000000 F F F
22.8099990000 8.7730000000 4.0090000000 F F F
22.5870430000 8.5181480000 7.4873490000 F F F
21.9349830000 7.8955810000 10.9488470000 F F F
0.0000000000 10.5280000000 2.2550000000 F F F
0.0099680000 10.5321540000 5.6807810000 F F F
24.0050090000 9.9749680000 9.3699350000 F F F
2.3587920000 12.9390960000 14.3979170000 F F F
1.7550000000 12.2820000000 0.5000000000 F F F
1.7550000000 12.2820000000 4.0090000000 F F F
1.4770310000 12.2229980000 7.6295810000 F F F
1.5076860000 11.0442280000 12.6265230000 F F F
3.5090000000 10.5280000000 2.2550000000 F F F
3.5237710000 10.5310900000 5.6671820000 F F F
2.4125330000 10.8145440000 9.8663850000 F F F
5.7773000000 7.9919470000 12.2511310000 F F F
5.2640000000 12.2820000000 0.5000000000 F F F
5.2640000000 12.2820000000 4.0090000000 F F F
5.1609650000 12.0664330000 7.6186550000 F F F
5.0633850000 16.3519350000 10.0795700000 F F F
7.0180000000 10.5280000000 2.2550000000 F F F
7.0227640000 10.5332460000 5.6703950000 F F F
6.8343540000 10.3510240000 9.9011770000 F F F
7.3013490000 9.2661410000 16.2526930000 F F F
8.7730000000 12.2820000000 0.5000000000 F F F
8.7730000000 12.2820000000 4.0090000000 F F F
6.6262410000 13.8056630000 9.2862420000 F F F
9.1709670000 7.9493040000 17.0741620000 F F F
10.5280000000 10.5280000000 2.2550000000 F F F
10.5258190000 10.5402840000 5.6642260000 F F F
9.6566960000 10.1551630000 9.5574280000 F F F
11.4633490000 11.7095240000 10.2323700000 F F F
12.2820000000 12.2820000000 0.5000000000 F F F
12.2820000000 12.2820000000 4.0090000000 F F F
10.8980240000 14.1393500000 9.2251520000 F F F
8.8488820000 11.9825710000 11.9653790000 F F F
14.0370000000 10.5280000000 2.2550000000 F F F
14.0441200000 10.5400580000 5.6663530000 F F F
12.1600300000 11.2165590000 7.9537280000 F F F
13.2067430000 11.7453800000 12.0612200000 F F F
15.7910000000 12.2820000000 0.5000000000 F F F
15.7910000000 12.2820000000 4.0090000000 F F F
16.0915280000 12.3453450000 7.5891050000 F F F
13.5000230000 14.4251500000 12.2154150000 F F F
17.5460000000 10.5280000000 2.2550000000 F F F
17.5544240000 10.5353850000 5.6728710000 F F F
16.4451890000 12.1023220000 10.2952360000 F F F
18.6829060000 6.3229510000 16.8515580000 F F F
19.3010010000 12.2820000000 0.5000000000 F F F
19.3010010000 12.2820000000 4.0090000000 F F F
19.1199430000 12.6995410000 7.8250150000 F F F
20.6862920000 9.9361520000 9.8597140000 F F F
21.0550000000 10.5280000000 2.2550000000 F F F
21.0490570000 10.5389800000 5.6770280000 F F F
17.9940760000 10.6691250000 8.6541230000 F F F
21.1752540000 10.8355380000 12.2303010000 F F F
22.8099990000 12.2820000000 0.5000000000 F F F
22.8099990000 12.2820000000 4.0090000000 F F F
22.9158170000 12.0614180000 7.6603580000 F F F
24.2250670000 12.7133080000 13.4348220000 F F F
0.0000000000 14.0370000000 2.2550000000 F F F
0.0026890000 14.0260550000 5.6721610000 F F F
24.4501130000 14.7392130000 8.6787620000 F F F
4.5874660000 16.3794520000 12.8422570000 F F F
1.7550000000 15.7910000000 0.5000000000 F F F
1.7550000000 15.7910000000 4.0090000000 F F F
2.4576000000 16.5777260000 7.7135410000 F F F
2.3881430000 17.9796530000 13.0065490000 F F F
3.5090000000 14.0370000000 2.2550000000 F F F
3.5188510000 14.0587740000 5.6749930000 F F F
0.1660990000 12.3128090000 9.9924710000 F F F
1.2603200000 14.0920360000 12.0951580000 F F F
5.2640000000 15.7910000000 0.5000000000 F F F
5.2640000000 15.7910000000 4.0090000000 F F F
5.3131230000 15.9951960000 7.3569180000 F F F
5.0237100000 14.0602290000 14.1413330000 F F F
7.0180000000 14.0370000000 2.2550000000 F F F
7.0253500000 14.0575260000 5.6809850000 F F F
6.8768620000 13.5111740000 12.0524130000 F F F
3.8320580000 13.3943730000 11.7711020000 F F F
8.7730000000 15.7910000000 0.5000000000 F F F
8.7730000000 15.7910000000 4.0090000000 F F F
8.7721510000 15.3735280000 7.0400010000 F F F
10.5832700000 13.8767390000 11.7842970000 F F F
10.5280000000 14.0370000000 2.2550000000 F F F
10.5256680000 14.0526070000 5.6782800000 F F F
8.7681580000 12.5927990000 7.0441900000 F F F
11.0757800000 12.9744830000 14.2100560000 F F F
12.2820000000 15.7910000000 0.5000000000 F F F
12.2820000000 15.7910000000 4.0090000000 F F F
12.3231170000 15.6633330000 7.0463990000 F F F
12.1764160000 15.6813970000 10.6778850000 F F F
14.0370000000 14.0370000000 2.2550000000 F F F
14.0504640000 14.0578270000 5.6923680000 F F F
13.6880490000 13.8814220000 9.1341540000 F F F
13.3630250000 16.8060360000 13.6718550000 F F F
15.7910000000 15.7910000000 0.5000000000 F F F
15.7910000000 15.7910000000 4.0090000000 F F F
15.6355490000 15.7572540000 7.2282570000 F F F
15.9768160000 15.7308210000 13.0869790000 F F F
17.5460000000 14.0370000000 2.2550000000 F F F
17.5452360000 14.0471100000 5.6807460000 F F F
15.6425680000 15.8928130000 10.3694370000 F F F
17.3000380000 14.1766550000 9.1489620000 F F F
19.3010010000 15.7910000000 0.5000000000 F F F
19.3010010000 15.7910000000 4.0090000000 F F F
19.3453250000 15.6348530000 7.7683130000 F F F
18.0099530000 16.0094600000 11.1436800000 F F F
21.0550000000 14.0370000000 2.2550000000 F F F
21.0543880000 14.0362730000 5.6766680000 F F F
21.7572550000 13.9737950000 9.4861890000 F F F
18.8903400000 13.1948870000 10.8440210000 F F F
22.8099990000 15.7910000000 0.5000000000 F F F
22.8099990000 15.7910000000 4.0090000000 F F F
22.1246680000 15.6445370000 6.9098470000 F F F
24.4753220000 16.6069450000 12.3684320000 F F F
0.0000000000 17.5460000000 2.2550000000 F F F
24.5515740000 17.5656230000 5.6866620000 F F F
0.1298720000 17.4356770000 9.5180910000 F F F
22.6788940000 14.7404970000 12.2943800000 F F F
1.7550000000 19.3010010000 0.5000000000 F F F
1.7550000000 19.3010010000 4.0090000000 F F F
1.0876490000 19.7916110000 7.8583740000 F F F
1.0375890000 19.9250690000 14.0064620000 F F F
3.5090000000 17.5460000000 2.2550000000 F F F
3.4926290000 17.5735220000 5.6929290000 F F F
3.3393740000 17.9664710000 9.7825320000 F F F
1.4913020000 15.4913600000 14.3042200000 F F F
5.2640000000 19.3010010000 0.5000000000 F F F
5.2640000000 19.3010010000 4.0090000000 F F F
2.8584810000 15.9263290000 11.3567890000 F F F
2.4543480000 20.3797750000 11.2037750000 F F F
7.0180000000 17.5460000000 2.2550000000 F F F
7.0395680000 17.5650880000 5.6837700000 F F F
8.5759980000 19.7281890000 7.8485050000 F F F
8.3528750000 13.8827110000 14.0207020000 F F F
8.7730000000 19.3010010000 0.5000000000 F F F
8.7730000000 19.3010010000 4.0090000000 F F F
7.7160690000 17.3549180000 9.0539680000 F F F
6.0463280000 18.7095640000 8.0673380000 F F F
10.5280000000 17.5460000000 2.2550000000 F F F
10.5272400000 17.5635770000 5.6727550000 F F F
10.5133280000 16.7455650000 8.7470890000 F F F
8.7275810000 15.2752010000 11.1326470000 F F F
12.2820000000 19.3010010000 0.5000000000 F F F
12.2820000000 19.3010010000 4.0090000000 F F F
12.2217790000 19.2719950000 7.3211410000 F F F
12.0832660000 19.0343960000 10.7411720000 F F F
14.0370000000 17.5460000000 2.2550000000 F F F
14.0328000000 17.5617790000 5.6817040000 F F F
13.7839220000 17.2980070000 8.8223690000 F F F
13.8704720000 19.4519600000 12.8511280000 F F F
15.7910000000 19.3010010000 0.5000000000 F F F
15.7910000000 19.3010010000 4.0090000000 F F F
15.6785440000 19.4419240000 7.4017360000 F F F
15.7758360000 18.6206330000 10.3938880000 F F F
17.5460000000 17.5460000000 2.2550000000 F F F
17.5676920000 17.5607310000 5.6729040000 F F F
17.4759370000 17.3435100000 8.7136270000 F F F
21.4675140000 17.6835660000 12.5180020000 F F F
19.3010010000 19.3010010000 0.5000000000 F F F
19.3010010000 19.3010010000 4.0090000000 F F F
19.5186510000 19.0757230000 7.3270970000 F F F
19.4591960000 17.0820210000 13.7385330000 F F F
21.0550000000 17.5460000000 2.2550000000 F F F
21.0747730000 17.5434010000 5.6868160000 F F F
20.4912700000 15.5658030000 10.9509430000 F F F
22.2099630000 19.1963540000 10.4211840000 F F F
22.8099990000 19.3010010000 0.5000000000 F F F
22.8099990000 19.3010010000 4.0090000000 F F F
23.0982040000 19.8289160000 7.4875230000 F F F
24.2231070000 19.4684510000 11.9518860000 F F F
0.0000000000 21.0550000000 2.2550000000 F F F
24.5525750000 21.0769000000 5.6762920000 F F F
24.3786000000 21.6464980000 9.5545020000 F F F
0.4162920000 21.9331070000 12.1100590000 F F F
1.7550000000 22.8099990000 0.5000000000 F F F
1.7550000000 22.8099990000 4.0090000000 F F F
1.4782720000 22.4168810000 7.5165630000 F F F
1.9867730000 23.1578740000 10.3129530000 F F F
3.5090000000 21.0550000000 2.2550000000 F F F
3.5216820000 21.0557240000 5.6762720000 F F F
3.7783680000 19.8124870000 8.1008980000 F F F
4.6621150000 18.8221040000 12.8030270000 F F F
5.2640000000 22.8099990000 0.5000000000 F F F
5.2640000000 22.8099990000 4.0090000000 F F F
5.0722680000 22.6433060000 7.4026750000 F F F
4.8388900000 22.2893870000 10.3533740000 F F F
7.0180000000 21.0550000000 2.2550000000 F F F
7.0322330000 21.0430870000 5.6690990000 F F F
4.9834150000 18.6486320000 5.8730130000 F F F
5.7481920000 18.8261290000 10.4590130000 F F F
8.7730000000 22.8099990000 0.5000000000 F F F
8.7730000000 22.8099990000 4.0090000000 F F F
8.8167620000 22.9813180000 9.9853510000 F F F
10.6163290000 21.2558160000 8.9015590000 F F F
10.5280000000 21.0550000000 2.2550000000 F F F
10.5318270000 21.0482890000 5.6700010000 F F F
11.6664190000 21.6173620000 11.2129120000 F F F
8.8043830000 20.0141390000 10.2032320000 F F F
12.2820000000 22.8099990000 0.5000000000 F F F
12.2820000000 22.8099990000 4.0090000000 F F F
12.3885080000 22.8446400000 7.3608270000 F F F
13.8065700000 0.1009010000 9.2757150000 F F F
14.0370000000 21.0550000000 2.2550000000 F F F
14.0456410000 21.0452550000 5.6828970000 F F F
14.0426310000 20.9266830000 9.4191170000 F F F
12.4954560000 23.8054310000 13.5628120000 F F F
15.7910000000 22.8099990000 0.5000000000 F F F
15.7910000000 22.8099990000 4.0090000000 F F F
17.0374610000 24.4885840000 9.0644500000 F F F
18.8586770000 23.3996140000 13.5745190000 F F F
17.5460000000 21.0550000000 2.2550000000 F F F
17.5490010000 21.0555570000 5.6819370000 F F F
15.7660570000 22.7250800000 7.2667310000 F F F
19.1696800000 18.2839690000 10.7578620000 F F F
19.3010010000 22.8099990000 0.5000000000 F F F
19.3010010000 22.8099990000 4.0090000000 F F F
18.8858020000 22.8459640000 7.4353540000 F F F
19.2979440000 23.0493060000 10.5332440000 F F F
21.0550000000 21.0550000000 2.2550000000 F F F
21.0564320000 21.0704650000 5.6651760000 F F F
21.4055280000 17.2537620000 8.7026260000 F F F
21.5020600000 20.3416030000 12.6235420000 F F F
22.8099990000 22.8099990000 0.5000000000 F F F
22.8099990000 22.8099990000 4.0090000000 F F F
23.2045680000 22.5612120000 7.2714040000 F F F
22.8855350000 22.6342630000 10.9966990000 F F F
8.5920500000 6.3900240000 15.0913930000 F F F
24.2154210000 14.0930570000 17.2858250000 F F F
7.4967140000 3.9794710000 18.4669170000 F F F
10.5207430000 3.2708960000 17.9080520000 F F F
14.6848200000 5.2813610000 17.7144180000 F F F
13.9986340000 1.7677480000 12.5829050000 F F F
11.4525720000 21.0553380000 18.0046330000 F F F
11.7421460000 5.4268370000 22.0276990000 F F F
21.7481000000 15.6702400000 23.8315040000 F F F
9.3399835937 2.5697791176 25.6615686492 T T T
14.6341670000 24.2750100000 28.3329920000 F F F
12.3121850000 4.7129550000 25.4663130000 F F F
13.1349600000 8.3485070000 28.0744880000 F F F
11.6926800000 16.7864760000 26.7518840000 F F F
8.5277950000 9.9326410000 11.3087780000 F F F
7.9944300000 11.9290160000 15.5696810000 F F F
8.3998550000 11.7655130000 17.0018620000 F F F
24.3050640000 15.6245160000 15.6998510000 F F F
3.2216380000 17.8119260000 20.5707990000 F F F
3.5304430000 17.8792650000 19.2725030000 F F F
1.4603460000 3.0882270000 13.9863760000 F F F
4.7937400000 6.0733060000 13.0402030000 F F F
4.9663110000 5.8351940000 14.3720370000 F F F
13.1486220000 4.3578700000 12.8680170000 F F F
14.1985680000 10.1218180000 13.7957810000 F F F
14.3372060000 9.9727890000 12.4466620000 F F F
4.1398150000 21.6615770000 19.1770080000 F F F
5.7695630000 22.3330900000 20.6475980000 F F F
4.4762470000 22.0612840000 21.4054870000 F F F
7.0545370000 14.4652930000 18.2011950000 F F F
4.1942900000 13.8430470000 21.6726680000 F F F
4.8964090000 13.1077290000 20.8636930000 F F F
4.2687530000 17.7840220000 7.6709330000 F F F
6.4539840000 19.9623690000 16.3930280000 F F F
7.3710610000 19.0324750000 16.1440640000 F F F
4.3658460000 23.8666140000 15.9500580000 F F F
1.5440910000 19.5456860000 16.1471620000 F F F
0.4552030000 20.3108000000 16.1439890000 F F F
9.4356860000 19.1742950000 19.2842320000 F F F
8.0833550000 17.3592380000 19.5771310000 F F F
7.3033860000 18.6339480000 19.8992280000 F F F
16.1788150000 6.8456630000 16.5800860000 F F F
17.2908450000 9.7449080000 20.6727190000 F F F
16.2306520000 8.9342720000 20.7337940000 F F F
4.1319150000 17.0832960000 15.2146140000 F F F
3.0352860000 14.6926220000 13.1617390000 F F F
5.2037130000 16.0871980000 14.9447050000 F F F
23.7674490000 20.8968550000 20.3839360000 F F F
0.5652580000 21.7369710000 22.0235200000 F F F
0.5755430000 22.6524650000 20.8262680000 F F F
20.8902180000 2.1254480000 18.1762730000 F F F
23.2789170000 4.4216620000 20.3480390000 F F F
22.8617760000 5.4346620000 19.5876440000 F F F
12.7902550000 4.0719100000 17.0751400000 F F F
12.1863420000 1.3531530000 19.5211790000 F F F
11.7886550000 2.3631220000 20.3039690000 F F F
8.9655650000 5.3879130000 17.1549570000 F F F
11.3508600000 6.7424100000 19.7938120000 F F F
11.9587790000 7.8074390000 20.3235280000 F F F
7.8573170000 1.2439310000 17.7273060000 F F F
9.0473820000 23.8985780000 17.3178070000 F F F
9.0221770000 24.1898950000 18.8169510000 F F F
13.0116110000 0.6747090000 15.9754780000 F F F
10.2206300000 24.2327080000 13.8556190000 F F F
10.4134670000 22.9092830000 13.9423880000 F F F
20.0140460000 15.7754640000 5.9014900000 F F F
20.8507090000 18.7844230000 14.2054810000 F F F
21.6944330000 18.6016510000 15.2658190000 F F F
21.0048310000 13.4747940000 11.5628820000 F F F
20.3698210000 11.1940490000 15.1422340000 F F F
21.5107730000 10.5039840000 15.0784030000 F F F
1.5944790000 0.7316450000 17.7940450000 F F F
0.4111930000 0.8386020000 13.9510430000 F F F
0.3790280000 2.2292480000 13.7575380000 F F F
12.3579800000 16.7000770000 18.3347870000 F F F
14.9881670000 18.1708450000 19.8798360000 F F F
14.7277740000 16.9710910000 20.5270230000 F F F
9.5673170000 4.8624850000 12.6930110000 F F F
5.6296140000 1.0585650000 13.5383690000 F F F
6.2315480000 2.0394800000 12.7899630000 F F F
3.7663800000 10.1629230000 12.6926490000 F F F
1.0228930000 11.3230790000 14.7152480000 F F F
1.7459700000 10.9739500000 15.7988430000 F F F
18.0827670000 12.9198240000 20.2761430000 F F F
19.9720880000 12.2191490000 19.2194680000 F F F
20.2765960000 12.3890890000 20.7103050000 F F F
17.7154320000 0.3265070000 18.5196370000 F F F
18.2359930000 3.6604450000 21.1610380000 F F F
18.3634860000 5.1650820000 21.2693490000 F F F
10.9822060000 13.9968160000 16.0774720000 F F F
9.8446600000 14.2736490000 15.6432780000 F F F
6.7817820000 12.3515560000 15.1567470000 F F F
23.8396870000 10.9957420000 19.0605350000 F F F
24.3688270000 8.7632050000 18.8638600000 F F F
24.1907130000 9.1343970000 20.3477840000 F F F
21.7825890000 16.9096570000 18.2126720000 F F F
19.4951490000 15.8951600000 21.7513510000 F F F
18.1891130000 16.7396490000 21.8949920000 F F F
21.7414840000 3.8759880000 14.4101390000 F F F
19.9091210000 23.9562150000 15.6300180000 F F F
21.1002320000 23.7109310000 15.0615280000 F F F
20.8276470000 20.7394260000 17.9534180000 F F F
17.1086670000 20.9590960000 20.3059880000 F F F
18.1028750000 20.8784860000 21.1837920000 F F F
16.8064770000 14.2187310000 11.3550640000 F F F
12.3388420000 13.4576890000 10.7876620000 F F F
17.1417530000 13.6280990000 12.5645380000 F F F
17.6541450000 18.8051470000 16.6349470000 F F F
14.9838820000 17.2033210000 15.2000410000 F F F
14.7665890000 18.4739520000 14.6114520000 F F F
1.2142910000 4.9644340000 16.8338920000 F F F
24.0238310000 7.5755670000 15.2782240000 F F F
0.2799880000 6.9195780000 14.4538650000 F F F
16.0928270000 2.6607970000 15.3482940000 F F F
17.0190070000 8.0299560000 13.1744120000 F F F
17.5478180000 6.8700020000 12.7182890000 F F F
5.2033590000 3.8015180000 20.1189370000 F F F
3.3256530000 4.6668900000 19.1415210000 F F F
3.0930330000 4.4968970000 20.6557040000 F F F
8.0888170000 7.9823560000 22.9600350000 F F F
7.1212780000 10.0298280000 22.9688800000 F F F
7.5022510000 9.6717240000 24.4118140000 F F F
1.9038710000 16.8928360000 27.7210510000 F F F
2.7865610000 16.9691170000 29.8463630000 F F F
1.2501000000 16.9331280000 29.9305760000 F F F
6.2105107267 2.9672048077 26.1298098778 T T T
5.3751040000 6.2102100000 24.5205790000 F F F
5.5237910000 5.3712480000 23.3193940000 F F F
10.5799820000 7.7084190000 25.6714580000 F F F
13.9326590000 10.6356650000 24.8387040000 F F F
12.5060710000 11.0222570000 24.6407890000 F F F
5.8958890000 23.2923280000 29.6112210000 F F F
4.4758210000 0.1120160000 28.4733810000 F F F
4.1695570000 0.1839210000 29.9618800000 F F F
7.7393800000 13.9130130000 29.4247670000 F F F
6.6242650000 12.0055440000 30.0108990000 F F F
6.7047970000 12.0944180000 28.4850950000 F F F
12.1615280000 22.0279770000 22.6197430000 F F F
9.1272500000 21.6991010000 24.5356300000 F F F
8.6897585558 23.0747523375 24.2996708716 T T T
1.2437960000 21.9618680000 26.4133350000 F F F
0.2289570000 20.1373770000 25.4644640000 F F F
0.1947330000 20.0009720000 26.9817060000 F F F
10.5081190000 18.8088930000 27.7168940000 F F F
8.5186900000 19.1833950000 28.7733190000 F F F
9.6074540000 18.8460030000 29.7947210000 F F F
15.6200170000 9.6520060000 28.9501700000 F F F
16.9624450000 11.4127670000 28.3479360000 F F F
17.2592520000 10.9849620000 29.7879600000 F F F
5.8882560000 18.8400230000 23.6640260000 F F F
5.0382610000 16.7152710000 23.8793200000 F F F
5.2465760000 17.3330070000 25.2647420000 F F F
24.3671520000 21.0713950000 30.2100240000 F F F
23.9164260000 23.2010910000 29.5083140000 F F F
22.6159170000 22.4080690000 29.5775500000 F F F
20.7337970000 1.9888050000 29.2451030000 F F F
22.5072730000 3.2888510000 28.5694470000 F F F
22.5304340000 3.1400980000 30.0952170000 F F F
12.8861090000 5.4162920000 28.1663360000 F F F
12.1575860000 3.2526850000 28.4287120000 F F F
12.3731630000 3.9102300000 29.8089410000 F F F
8.4597490000 4.6885280000 28.3788100000 F F F
8.0296770000 6.9117890000 28.2959920000 F F F
8.3884530000 6.5216000000 29.7222710000 F F F
9.5662620000 0.4531760000 28.0683180000 F F F
10.0943200000 24.2505180000 30.1465880000 F F F
9.8267270000 23.0697130000 29.2242980000 F F F
14.9234540000 0.6569170000 25.6291940000 F F F
14.5557660000 1.0121110000 23.4004270000 F F F
13.5144770000 1.7588980000 24.2382730000 F F F
21.3529190000 22.2982770000 25.7739010000 F F F
20.8992390000 21.0736350000 23.8951290000 F F F
20.7817920000 20.1703560000 25.1264660000 F F F
21.8203300000 11.4746960000 24.4165510000 F F F
18.7021950000 14.9292460000 25.5928410000 F F F
19.2469800000 13.8023380000 25.1330100000 F F F
3.2964010000 0.8195290000 21.9405630000 F F F
3.6588353676 1.1493172967 24.1911572741 T T T
2.1643440000 1.3215790000 23.8895230000 F F F
12.6950980000 14.9824960000 25.5439460000 F F F
11.8622080000 14.0826930000 29.6830840000 F F F
12.9170760000 14.8116700000 28.9445810000 F F F
10.5696290000 3.4455750000 23.8391980000 F F F
7.4364985765 0.9556359632 22.4734127223 T T T
8.5669426810 1.1952068178 21.7908307586 T T T
4.7159120000 12.2373930000 24.1473350000 F F F
2.9194060000 11.1288390000 23.2274740000 F F F
2.4282160000 12.0915250000 24.3161320000 F F F
16.1861160000 15.4302780000 29.6191220000 F F F
15.9923030000 16.9066860000 27.8708240000 F F F
15.7103970000 17.6337830000 29.1870620000 F F F
15.6748420000 2.2375580000 29.4006970000 F F F
16.7540380000 4.0125480000 28.4495710000 F F F
16.8729170000 4.0976430000 29.9558850000 F F F
10.1434580000 11.8434490000 20.3487390000 F F F
10.8641380000 13.7947800000 21.2804910000 F F F
9.4410660000 13.4861700000 21.7571740000 F F F
0.4343800000 13.1637660000 27.7757830000 F F F
0.9158240000 11.0119290000 28.4130750000 F F F
0.0890670000 11.6941970000 29.5047730000 F F F
21.4875720000 16.4392170000 27.7261510000 F F F
20.2177810000 16.4715260000 29.6156120000 F F F
20.6001590000 17.9006930000 29.2394780000 F F F
20.7401470000 3.9123850000 24.4198160000 F F F
19.3555910000 2.1889220000 24.9598000000 F F F
20.7502220000 1.6585350000 24.7264870000 F F F
18.3676900000 20.8657840000 28.2600060000 F F F
18.7009020000 22.6363550000 29.6679870000 F F F
18.5441300000 23.1498550000 28.2390130000 F F F
14.6481250000 12.3991120000 22.1964910000 F F F
16.2603160000 13.1365940000 23.6189300000 F F F
14.9384620000 13.7805770000 24.0044820000 F F F
15.4418750000 18.1523420000 24.1152210000 F F F
15.5042720000 20.3156550000 23.7307580000 F F F
15.9470330000 20.0542260000 25.1656650000 F F F
0.9393430000 6.6360490000 23.8236260000 F F F
24.0465780000 7.2816390000 25.4846300000 F F F
24.1436610000 8.3976960000 24.4312270000 F F F
16.9568440000 4.4419510000 25.4449910000 F F F
18.4102810000 7.6568970000 25.4801670000 F F F
19.2317860000 7.6092890000 24.2146550000 F F F
1.8455210000 3.2974500000 30.2187510000 F F F
3.1766900000 5.1123690000 29.7173250000 F F F
1.7025020000 5.5250170000 29.6518360000 F F F
8.7066790000 11.6036060000 14.8046320000 F F F
7.4945900000 11.5317200000 17.5799090000 F F F
8.8017180000 12.6818550000 17.4409890000 F F F
9.1781510000 11.0029940000 17.1114710000 F F F
3.2455310000 18.6841240000 21.2184990000 F F F
3.5091890000 16.9961210000 18.6389070000 F F F
2.8448630000 16.8886100000 21.0107400000 F F F
3.8134380000 18.8106060000 18.7792910000 F F F
4.5381280000 6.4563430000 15.1729640000 F F F
3.9742330000 6.8078770000 12.8981060000 F F F
5.5913300000 5.0179120000 14.7767440000 F F F
8.4062230000 0.1324420000 10.6310800000 F F F
15.0118440000 10.4379840000 14.4719250000 F F F
13.2622650000 9.9445330000 14.3532330000 F F F
15.4190710000 10.0808530000 12.1725360000 F F F
6.5184820000 12.1727120000 10.0878660000 F F F
6.5670820000 21.6184620000 20.8773390000 F F F
6.1253460881 23.3589798256 20.7703849185 T T T
4.6187980000 21.4025250000 22.2642660000 F F F
3.9546470000 22.9888290000 21.6723690000 F F F
4.7681150000 14.3936280000 22.4074210000 F F F
3.4431460000 8.8711150000 18.3835370000 F F F
3.1227430000 13.7159750000 21.8332870000 F F F
6.0599340000 13.9723100000 18.4066020000 F F F
6.7211630000 20.9585150000 16.7482690000 F F F
7.0902810000 18.0207350000 15.8618620000 F F F
8.4372030000 19.2407260000 16.2281060000 F F F
5.3866230000 19.7735880000 16.2883790000 F F F
0.1932880000 20.9624050000 15.2895060000 F F F
1.7888210000 18.9022140000 16.9854070000 F F F
2.2536870000 19.4887990000 15.2975600000 F F F
24.3209390000 20.3311310000 16.9708310000 F F F
7.6317710000 16.7754760000 18.7773890000 F F F
8.2615680000 16.7316670000 20.4570900000 F F F
6.4751780000 18.8221380000 19.2059450000 F F F
6.9576560000 18.6855980000 20.9351420000 F F F
16.0369840000 8.2356120000 19.9078640000 F F F
17.8795920000 9.7802650000 19.7507670000 F F F
15.5197800000 8.9204480000 21.5661080000 F F F
17.5973630000 10.4109030000 21.4846890000 F F F
0.6172630000 18.3952570000 13.2333070000 F F F
3.4507160000 15.1595320000 14.1264780000 F F F
5.3714140000 15.3875260000 15.7559380000 F F F
1.5180410000 14.1800050000 7.6357070000 F F F
0.4309980000 22.2736680000 22.9674670000 F F F
1.4511500000 21.0943700000 22.0837660000 F F F
0.0238930000 23.5848470000 21.0131330000 F F F
1.5867300000 22.8664780000 20.4741300000 F F F
23.0057840000 4.3400060000 21.3988010000 F F F
23.8616090000 3.5915440000 19.9395820000 F F F
22.3974050000 6.3162740000 20.0187230000 F F F
22.9024180000 5.3901150000 18.4932440000 F F F
11.8844380000 2.3444410000 21.3941510000 F F F
12.7792250000 0.5464130000 19.9340280000 F F F
11.4062630000 3.3108950000 19.8781140000 F F F
11.9820980000 1.2982210000 18.4513600000 F F F
10.5205360000 6.2382950000 20.3074650000 F F F
11.6052980000 6.3454120000 18.8104140000 F F F
12.5730640000 8.4886950000 19.7380210000 F F F
11.8014180000 8.0901780000 21.3630280000 F F F
8.6593740000 22.8870840000 17.1406560000 F F F
10.0035460000 24.0356740000 16.7992400000 F F F
8.3194400000 23.5340240000 19.3482490000 F F F
10.0009900000 24.1514170000 19.2989580000 F F F
10.4138980000 0.3281700000 14.7041490000 F F F
9.8929190000 0.1210290000 12.9140750000 F F F
10.7523330000 22.4630550000 14.8809890000 F F F
10.2373310000 22.2626620000 13.0820270000 F F F
21.3347870000 18.6242290000 16.3004410000 F F F
19.9567030000 19.3552180000 14.5769320000 F F F
22.7603260000 18.3147890000 15.2090420000 F F F
21.1627620000 17.6480130000 21.3836890000 F F F
19.9027490000 11.3724800000 16.1068150000 F F F
22.0052550000 10.1437290000 15.9780130000 F F F
22.0299190000 10.2854780000 14.1377520000 F F F
19.8873580000 11.6610100000 14.2777100000 F F F
1.3433360000 0.4004360000 14.3086580000 F F F
24.0661040000 0.2531230000 14.0462890000 F F F
2.2834230000 2.5018400000 14.4632950000 F F F
24.0423820000 2.5990200000 13.2131760000 F F F
15.4967380000 18.1496940000 18.9238380000 F F F
14.1538280000 16.8731800000 23.4627760000 F F F
14.6278330000 19.1245740000 20.2641720000 F F F
15.1075240000 16.0585180000 20.0282970000 F F F
7.4406870000 2.4484380000 10.1300260000 F F F
5.9905400000 0.7911100000 14.5433320000 F F F
4.7217790000 0.4719490000 13.2850510000 F F F
6.8198400000 2.6756280000 13.5085140000 F F F
3.3055410000 10.2530470000 13.6975460000 F F F
24.5165270000 11.2305770000 15.0118830000 F F F
1.2943600000 10.6561840000 16.7468130000 F F F
2.8437370000 10.9625640000 15.8177410000 F F F
20.0653710000 11.1766240000 18.8767080000 F F F
20.6065350000 12.8395730000 18.5890140000 F F F
20.7020500000 11.4924900000 21.1716490000 F F F
20.9205900000 13.2510390000 20.9067360000 F F F
17.6724400000 5.5240070000 22.0474160000 F F F
19.4112560000 2.2630990000 20.4670590000 F F F
18.0249210000 5.5625110000 20.2964080000 F F F
19.3677520000 5.5704500000 21.4495630000 F F F
8.9244010000 14.8150180000 15.9048340000 F F F
11.8753510000 13.9803210000 16.6869000000 F F F
5.9772970000 12.4856000000 15.8667870000 F F F
6.1292550000 16.6184280000 14.6955620000 F F F
23.6280440000 8.0489740000 18.5058190000 F F F
0.8164920000 8.4476860000 18.6031760000 F F F
23.4203120000 8.5396690000 20.8478610000 F F F
0.5631090000 9.0708740000 20.9081780000 F F F
18.1432330000 17.4825800000 21.0879350000 F F F
18.2204110000 17.2530420000 22.8626460000 F F F
21.7859240000 18.9419600000 20.9403650000 F F F
17.2931330000 16.1034790000 21.8152300000 F F F
21.5468020000 24.4037120000 14.3478390000 F F F
19.4732770000 23.2454350000 16.3296520000 F F F
19.4359350000 0.3709070000 15.5607630000 F F F
21.6826740000 22.8398960000 15.3770040000 F F F
16.1091920000 21.2769510000 20.6022300000 F F F
19.1048790000 20.5850740000 20.9076790000 F F F
17.2615830000 20.7580360000 19.2435210000 F F F
17.9250270000 21.1292840000 22.2208140000 F F F
13.0523360000 12.6572110000 10.3704780000 F F F
15.7574490000 13.9038500000 11.0466520000 F F F
18.0849710000 13.8432840000 13.0839530000 F F F
16.4917330000 12.9343760000 13.1183570000 F F F
15.3624190000 18.7223890000 13.7169090000 F F F
15.0780400000 17.1378580000 16.3001990000 F F F
14.7402610000 19.2866430000 15.3452530000 F F F
13.0304740000 20.6948700000 11.8793830000 F F F
1.1876280000 7.3830400000 14.0619330000 F F F
23.1505150000 7.1026590000 15.7390290000 F F F
0.1252350000 5.8550140000 14.2415670000 F F F
24.2402380000 8.5923790000 15.6017080000 F F F
16.2534480000 8.0649730000 13.9595760000 F F F
15.7698440000 3.9043540000 5.4989580000 F F F
17.3544320000 9.0378800000 12.8550450000 F F F
16.8756090000 6.0365810000 13.0222340000 F F F
3.2675810000 5.6979780000 18.7964040000 F F F
2.6886870000 3.9991670000 18.5687120000 F F F
3.0171360000 5.4372010000 21.2123560000 F F F
2.2223210000 3.8765280000 20.8821090000 F F F
7.4718200000 10.9841340000 22.5990820000 F F F
6.0546590000 9.8812430000 22.7646180000 F F F
8.4294150000 10.1210300000 24.7596010000 F F F
6.6887910000 9.8287210000 25.1450250000 F F F
3.2684830000 16.1049610000 30.3184220000 F F F
3.2098640000 17.9007530000 30.2341940000 F F F
0.8677630000 16.0590080000 30.4699460000 F F F
0.8219300000 17.8600410000 30.3250180000 F F F
4.5552450000 5.1711420000 22.8425480000 F F F
4.3121200000 6.3588990000 24.6690150000 F F F
5.8236150000 7.1957400000 24.3853400000 F F F
5.8274880000 5.7594570000 25.4056830000 F F F
11.8658930000 10.1407940000 24.5368970000 F F F
14.4512310000 11.2551780000 25.6033610000 F F F
12.3796890000 11.6145500000 23.7416310000 F F F
12.1911450000 11.5972780000 25.5122060000 F F F
4.9898960000 1.0073980000 28.1234240000 F F F
3.6028620000 24.4451680000 27.8521590000 F F F
4.1192330000 1.1998750000 30.3581900000 F F F
3.2581750000 24.2016650000 30.2340470000 F F F
7.3157820000 11.2652250000 30.4287890000 F F F
5.6138080000 11.8324510000 30.3939580000 F F F
7.1391950000 11.2032630000 28.0245370000 F F F
5.7441360000 12.3272520000 28.0128360000 F F F
8.1701361502 23.3006787552 23.3595874679 T T T
8.9384550000 20.9174080000 23.7847330000 F F F
9.2462620000 21.3241550000 25.5565960000 F F F
8.4669397896 23.7366905746 25.1437832174 T T T
23.8149300000 20.0349100000 24.9843470000 F F F
0.9401330000 19.4479570000 24.9988570000 F F F
23.7869980000 20.1669580000 27.4607660000 F F F
0.5962140000 19.0517160000 27.3309150000 F F F
8.0683260000 20.1569950000 28.9603740000 F F F
7.7301800000 18.4125140000 28.7354710000 F F F
9.8425790000 19.6579540000 30.4923750000 F F F
9.3305740000 17.9411420000 30.3168570000 F F F
17.8277680000 11.3118190000 27.6861270000 F F F
16.5382690000 12.4177760000 28.2746480000 F F F
18.2512590000 10.5308360000 29.8777640000 F F F
17.1270330000 11.7918160000 30.5122050000 F F F
3.9806170000 16.6125160000 23.6070150000 F F F
5.5638240000 15.7635420000 23.7526170000 F F F
4.3407290000 17.3195490000 25.8728780000 F F F
6.0828390000 16.8935440000 25.8235880000 F F F
23.8821520000 24.1600600000 30.0348630000 F F F
24.2658430000 23.3615180000 28.4819720000 F F F
22.0037390000 22.6782170000 30.4491330000 F F F
22.0273700000 22.4695360000 28.6578040000 F F F
23.4235020000 2.9344760000 28.0892660000 F F F
22.2788450000 4.3058500000 28.2333630000 F F F
23.3943630000 2.5774960000 30.4617470000 F F F
22.4600290000 4.0962700000 30.6207960000 F F F
11.1328770000 2.9359080000 28.2216740000 F F F
12.8871130000 2.4595570000 28.2298120000 F F F
11.4455260000 4.1537000000 30.3357010000 F F F
13.0709830000 3.3689940000 30.4441170000 F F F
8.8563750000 7.4051590000 27.7826990000 F F F
7.1152580000 7.4922170000 28.1745890000 F F F
9.1589580000 7.1479870000 30.1717720000 F F F
7.5257440000 6.4467930000 30.4023400000 F F F
11.1457930000 24.2617210000 30.3416300000 F F F
9.4787500000 24.2684080000 31.0503010000 F F F
10.7015440000 22.4454910000 29.0422990000 F F F
8.9925130000 22.5066750000 29.5969020000 F F F
15.2499930000 1.6685600000 22.8654560000 F F F
14.1103600000 0.2832520000 22.7144160000 F F F
13.4646990000 2.8174180000 24.0116590000 F F F
12.5093940000 1.3278980000 24.1838210000 F F F
19.9961390000 21.0627230000 23.2778460000 F F F
21.7822900000 20.8507690000 23.2859870000 F F F
19.7522660000 19.8712660000 25.3435650000 F F F
21.4237920000 19.2858890000 25.0769400000 F F F
19.2237170000 12.8766410000 25.7078910000 F F F
18.1906230000 14.9559250000 26.5552070000 F F F
19.7730870000 13.7829750000 24.1791720000 F F F
18.7379910000 15.8514330000 25.0110010000 F F F
3.8581766919 0.2894385798 24.8387074856 T T T
4.1134663476 2.0496404593 24.6017196016 T T T
1.5246280000 0.6539570000 24.4761580000 F F F
1.8319920000 2.3633200000 23.9933820000 F F F
11.8191500000 13.0489020000 29.3506650000 F F F
13.9233150000 14.3617360000 28.9552590000 F F F
10.9007280000 14.5553990000 29.4841630000 F F F
12.0492450000 14.0770630000 30.7721630000 F F F
8.6228423320 1.2136851897 20.7080099997 T T T
6.6617992980 0.2729883878 22.1465677364 T T T
9.4767559315 1.4747328672 22.3398525138 T T T
7.2604212542 1.4683722680 23.4159017708 T T T
2.5773190000 11.3972100000 22.2177800000 F F F
2.6805440000 10.0781860000 23.4292040000 F F F
1.6996280000 12.8261320000 23.9641790000 F F F
2.0492990000 11.5795630000 25.2046540000 F F F
16.9673190000 17.1777660000 27.4591620000 F F F
15.2207970000 17.0129730000 27.1078710000 F F F
16.3165850000 18.5343300000 29.3060930000 F F F
14.6408240000 17.8375230000 29.3267150000 F F F
17.6978070000 3.7467360000 27.9574460000 F F F
16.3338020000 4.9075120000 27.9903230000 F F F
17.9006640000 4.1789230000 30.3178130000 F F F
16.2502240000 4.8943630000 30.3830340000 F F F
10.9439160000 14.6436290000 20.6083830000 F F F
8.6945030000 14.2007430000 21.4080170000 F F F
11.6094250000 13.8741430000 22.0752850000 F F F
9.3613510000 13.3421620000 22.8265960000 F F F
0.4864520000 10.0624510000 28.0948520000 F F F
1.9641530000 10.8478140000 28.6786100000 F F F
23.6136310000 11.3518890000 29.5171210000 F F F
0.5253650000 11.6282690000 30.5057790000 F F F
19.1380040000 16.3416230000 29.7174860000 F F F
20.7080810000 16.1088770000 30.5358040000 F F F
19.7548800000 18.4702270000 28.8447910000 F F F
21.0852380000 18.4425680000 30.0528840000 F F F
20.7963100000 0.7695390000 24.0915010000 F F F
21.2870460000 1.4776910000 25.6663870000 F F F
18.6661610000 2.0130360000 24.1216330000 F F F
18.8917520000 1.8503570000 25.8891280000 F F F
17.8230930000 22.8281490000 30.2936940000 F F F
19.6039030000 23.0052110000 30.1645890000 F F F
17.7662770000 23.9076570000 28.1337460000 F F F
19.4829530000 23.5151380000 27.8097440000 F F F
16.7941810000 12.7197730000 24.4774310000 F F F
16.9148810000 13.8119010000 23.0545490000 F F F
14.5091850000 13.3394940000 24.9100150000 F F F
14.9575470000 14.8607690000 24.0868450000 F F F
16.1219040000 21.0209580000 23.1673890000 F F F
14.4399130000 20.6164820000 23.7061550000 F F F
16.9835240000 20.2684370000 25.4554070000 F F F
15.2556710000 20.5836300000 25.8270740000 F F F
23.0455100000 6.8496990000 25.5793130000 F F F
24.4233410000 7.6055950000 26.4572640000 F F F
23.1936070000 8.6299720000 23.9452820000 F F F
0.0146510000 9.3205430000 24.8289160000 F F F
20.1864540000 8.1189270000 24.4101930000 F F F
19.4702700000 6.5763900000 23.9096820000 F F F
18.9294620000 7.2798740000 26.4033680000 F F F
18.6998490000 8.1046920000 23.3949560000 F F F
3.7554100000 5.7077620000 30.4313200000 F F F
3.6752230000 5.1250130000 28.7440160000 F F F
1.4142300000 6.2042830000 30.4624140000 F F F
1.4288260000 5.9500170000 28.6805410000 F F F
8.9421640000 8.6868370000 11.1775600000 F F F
7.5379180000 5.7861490000 9.3797750000 F F F
8.0272770000 10.2923970000 12.4399080000 F F F
24.4465050000 16.7451430000 15.0936620000 F F F
23.1779370000 15.1469600000 16.0955350000 F F F
0.8396650000 14.8677750000 15.9534090000 F F F
0.8708930000 10.9668470000 8.8987900000 F F F
0.2790760000 3.3846340000 7.4611070000 F F F
2.8980280000 3.2819130000 11.0622440000 F F F
12.9162340000 7.5263440000 10.9825570000 F F F
12.2751130000 3.2887730000 5.6203560000 F F F
13.1060850000 5.4469960000 13.6180280000 F F F
5.3859270000 22.1702360000 19.2597100000 F F F
3.6351380000 21.4040930000 20.4180540000 F F F
3.5549410000 21.4774230000 18.1457920000 F F F
5.5256900000 12.3788180000 20.1660370000 F F F
7.1329500000 15.0556730000 17.0726620000 F F F
7.9380320000 14.3347200000 19.0891840000 F F F
8.7965480000 21.4783030000 8.8607140000 F F F
7.3392450000 19.1183980000 9.3830460000 F F F
6.8784770000 1.6940110000 5.8550800000 F F F
4.8162720000 24.4739940000 16.8259090000 F F F
1.7863200000 20.9831120000 12.7804620000 F F F
3.9357970000 23.2611400000 15.0272910000 F F F
9.3744850000 17.8431500000 19.1106740000 F F F
8.2808010000 19.6874700000 19.7171630000 F F F
10.4254130000 19.8465260000 19.0834260000 F F F
17.2208240000 7.2039010000 15.9024030000 F F F
16.2755510000 6.4660030000 17.7963840000 F F F
15.0122630000 6.7137020000 15.9720830000 F F F
3.8537330000 17.8682080000 14.1632460000 F F F
4.3584380000 17.5837580000 11.3616420000 F F F
3.5338900000 17.1074220000 16.2875750000 F F F
23.9786310000 20.8815720000 21.7445940000 F F F
24.4713580000 21.8900760000 19.7990370000 F F F
23.0450850000 20.1506600000 19.7835770000 F F F
21.2320450000 3.2293840000 17.9296170000 F F F
20.5219510000 1.0547620000 18.4312080000 F F F
17.8093130000 1.4325300000 18.8939440000 F F F
11.8221730000 3.3341340000 16.6791790000 F F F
13.5250590000 3.8404460000 18.1023880000 F F F
13.0466920000 5.1696190000 16.4150320000 F F F
9.8764930000 6.1886930000 16.6635630000 F F F
9.2127540000 4.6211510000 18.1860200000 F F F
7.8284020000 5.3111830000 16.5102070000 F F F
8.0817690000 0.3078550000 16.8116990000 F F F
8.4977970000 0.9821930000 18.8932680000 F F F
7.1693680000 2.2276180000 17.5272120000 F F F
13.3155740000 0.3607720000 14.6860970000 F F F
11.8418790000 0.4795960000 16.4002290000 F F F
14.0202440000 1.0978680000 16.6664830000 F F F
22.9797400000 20.7564030000 11.3119720000 F F F
24.4515020000 21.2344960000 7.6736050000 F F F
0.1697890000 23.1874250000 10.7009460000 F F F
21.8784740000 12.8560980000 12.2655940000 F F F
20.6933010000 9.1284590000 11.5835760000 F F F
22.8836080000 6.4019660000 11.1097300000 F F F
1.8373650000 24.5555270000 16.8578700000 F F F
0.2929170000 1.7449350000 10.4992040000 F F F
1.3538690000 1.4737570000 18.6605920000 F F F
14.1255710000 16.8395970000 21.6400020000 F F F
12.0999470000 15.6233120000 18.7189510000 F F F
12.6313430000 17.7544720000 17.9094730000 F F F
6.3600590000 5.1028490000 5.4515500000 F F F
8.3365810000 4.6286870000 12.3006030000 F F F
9.6683140000 5.8768640000 13.5702030000 F F F
5.9695070000 8.5519010000 9.8615890000 F F F
4.9838970000 9.7224910000 12.5937200000 F F F
3.0463140000 10.3596790000 11.6282590000 F F F
18.6121250000 12.6463490000 19.0575470000 F F F
18.9696770000 12.6360220000 21.2769770000 F F F
16.9809370000 13.3563880000 20.4453390000 F F F
19.4730430000 3.0312360000 21.0601420000 F F F
17.1920320000 3.0286920000 21.2204410000 F F F
17.6485810000 23.7841110000 18.1292420000 F F F
8.7562190000 13.7977700000 12.2134590000 F F F
6.4869350000 12.7435180000 13.8665540000 F F F
8.7802690000 13.9973660000 5.8338540000 F F F
24.1209160000 10.0246650000 18.1790280000 F F F
23.7594040000 10.5257770000 20.3254120000 F F F
23.7100570000 12.1561690000 18.7475630000 F F F
22.8015520000 17.4738750000 18.3367970000 F F F
19.6940700000 15.3584570000 20.6217840000 F F F
20.7440520000 16.3875080000 18.0761740000 F F F
21.1318910000 23.1273360000 10.4763510000 F F F
21.7544670000 3.9252600000 13.2269930000 F F F
22.6338560000 3.5227920000 9.1926440000 F F F
20.9799500000 18.5937870000 21.3160270000 F F F
19.9999130000 19.9295630000 18.1383710000 F F F
21.6420990000 21.5509570000 17.7331400000 F F F
11.4655790000 10.1358100000 9.3005390000 F F F
17.5161870000 12.3704830000 8.8599660000 F F F
15.5531540000 7.4469090000 9.3088430000 F F F
14.8905430000 16.0603680000 14.5631120000 F F F
17.4189460000 19.9004130000 16.3093850000 F F F
17.8862580000 17.6990830000 16.9388120000 F F F
2.0862360000 5.6363510000 16.4947920000 F F F
0.3481480000 4.2278210000 17.1673290000 F F F
22.3328490000 3.0965600000 15.2542550000 F F F
15.8749250000 3.7257400000 15.7944750000 F F F
18.5078880000 6.7875620000 9.8527500000 F F F
14.2609550000 3.6866920000 12.9713030000 F F F
4.6859780000 4.1980330000 18.9536460000 F F F
4.2787340000 3.7794970000 21.1024720000 F F F
6.3758880000 3.4952980000 20.2256200000 F F F
7.8681770000 9.0658580000 22.1873660000 F F F
7.7713660000 8.2310810000 24.2579140000 F F F
8.5088550000 6.9449980000 22.5109540000 F F F
3.0669900000 16.9054800000 28.4197850000 F F F
0.8303530000 16.8441650000 28.5467480000 F F F
1.8497630000 16.9761060000 26.5211790000 F F F
7.2087060577 3.3134961614 25.6196683986 T T T
6.5590520000 4.9116760000 22.8327120000 F F F
5.2022580000 2.6310870000 26.6118110000 F F F
14.5607260000 9.7997080000 24.2244190000 F F F
10.3622990000 8.7900710000 25.3010780000 F F F
10.8312750000 6.6230930000 26.0581850000 F F F
5.4096540000 23.5708890000 28.3731700000 F F F
5.3047190000 24.0681390000 30.5550740000 F F F
6.7496160000 22.4731550000 29.8431460000 F F F
7.0601950000 13.3136030000 30.4424000000 F F F
7.6026010000 13.2057390000 28.2724120000 F F F
8.3678330000 14.9347690000 29.5336550000 F F F
12.0681000000 23.1819170000 22.4544190000 F F F
10.0841340000 22.7094340000 24.1738690000 F F F
12.2893450000 20.8754810000 22.8066120000 F F F
0.6894060000 21.5001360000 25.2588650000 F F F
1.0890180000 21.0628540000 27.4166880000 F F F
1.7848470000 23.0349420000 26.5176330000 F F F
9.2470290000 19.2289700000 27.5152240000 F F F
10.7891360000 18.5888650000 29.0025080000 F F F
11.3212880000 18.6161350000 26.8340790000 F F F
15.9530750000 10.4576240000 27.9232730000 F F F
16.2686180000 9.9698740000 30.0782780000 F F F
14.8107940000 8.7513130000 28.8507870000 F F F
5.6532090000 17.6831110000 22.9836840000 F F F
5.5809160000 18.7153160000 24.9726350000 F F F
6.2700020000 19.8503380000 23.1257790000 F F F
0.2921460000 22.3361770000 30.1935980000 F F F
23.0782560000 21.0461100000 29.7526130000 F F F
0.4118200000 20.0988170000 30.5706680000 F F F
21.4167190000 2.4271680000 28.1552070000 F F F
21.3359680000 2.3727270000 30.3902670000 F F F
19.7198310000 1.3374520000 29.1904250000 F F F
12.4764280000 4.3356400000 27.4891080000 F F F
12.9905700000 5.1958280000 29.4676380000 F F F
13.1644300000 6.4875670000 27.6408460000 F F F
7.7898370000 5.6267400000 27.6744480000 F F F
8.9491970000 5.1873590000 29.5462540000 F F F
8.6035040000 3.5556520000 28.0003100000 F F F
9.8150970000 0.8580110000 29.3258910000 F F F
9.4413800000 23.6919350000 27.9643790000 F F F
9.4676910000 1.2092700000 27.1196660000 F F F
15.3062340000 0.2784770000 24.4037640000 F F F
13.9888910000 1.6105220000 25.6201010000 F F F
15.3361290000 0.1162830000 26.6357200000 F F F
21.0449190000 22.4029440000 24.4607900000 F F F
21.2355870000 21.0187120000 26.2173380000 F F F
21.6604970000 23.2251490000 26.4784560000 F F F
21.3438990000 10.4168920000 24.5522380000 F F F
20.2396110000 15.8489550000 22.7755400000 F F F
22.3020300000 12.5288480000 24.2551350000 F F F
4.2517144496 0.8960552211 22.8963115391 T T T
2.0534930000 0.9544190000 22.4877970000 F F F
3.4884390000 0.5806880000 20.7776660000 F F F
12.3605160000 13.8857360000 25.7392310000 F F F
12.7176930000 15.8553400000 28.3158460000 F F F
13.0481510000 16.0861170000 25.3756500000 F F F
11.1330420000 3.4452170000 24.9626810000 F F F
10.7582460000 4.0956380000 22.8242180000 F F F
9.5841720921 2.5705424402 23.8351904778 T T T
4.3613180000 11.2555640000 23.2736470000 F F F
3.6356560000 12.8007030000 24.7202120000 F F F
5.8643230000 12.5399530000 24.3720730000 F F F
16.0290240000 15.5049630000 28.2723770000 F F F
16.1223620000 16.6589870000 30.1844220000 F F F
16.3622260000 14.3978160000 30.2177380000 F F F
15.8187960000 2.9107970000 28.2456020000 F F F
16.3351310000 2.8218020000 30.4107010000 F F F
15.0243040000 1.2167770000 29.5145600000 F F F
11.1864460000 12.6419890000 20.4288920000 F F F
9.1344860000 12.1961730000 21.1523310000 F F F
10.0519940000 10.8634750000 19.6065530000 F F F
0.8477300000 11.9464620000 27.3161540000 F F F
0.1140950000 13.0951550000 29.1022650000 F F F
0.3633060000 14.1552360000 27.1081090000 F F F
20.6867440000 15.6846110000 28.5053290000 F F F
21.5571490000 17.7177260000 28.1403520000 F F F
22.0776450000 16.0130440000 26.7527320000 F F F
21.3922650000 2.7808690000 24.0455990000 F F F
19.5975180000 3.6167540000 25.0710000000 F F F
21.1345310000 5.0314350000 24.2021110000 F F F
18.8203460000 21.1973690000 29.4945160000 F F F
18.1344430000 21.9644190000 27.5077950000 F F F
18.2191350000 19.7315340000 27.8707540000 F F F
15.8516310000 12.0622760000 22.7429200000 F F F
14.0835150000 13.4335280000 22.8833280000 F F F
14.1446150000 11.8453720000 21.2560150000 F F F
15.5561910000 19.0108560000 23.1183210000 F F F
15.7304040000 18.6283580000 25.3120320000 F F F
15.0309310000 16.9702140000 23.9746440000 F F F
0.3749020000 6.2479590000 24.9835580000 F F F
0.4886630000 7.8664400000 23.4357590000 F F F
1.7367230000 5.9916600000 23.1878080000 F F F
17.2920030000 8.1173160000 25.5392740000 F F F
16.3566150000 3.5520380000 24.9644080000 F F F
17.5808880000 5.2869820000 25.9654340000 F F F
3.1294490000 3.7455960000 30.1998720000 F F F
0.9834540000 4.2826430000 29.8349860000 F F F
1.5093060000 2.1824610000 30.5159350000 F F F
14.4746340000 10.3778430000 18.1862380000 F F F
13.4599870000 22.7637440000 17.6447270000 F F F
5.7664830000 8.8693840000 19.8055880000 F F F
15.5455340000 1.6438030000 10.2058260000 F F F
13.8556610000 17.3677550000 11.3905290000 F F F
22.6980940000 16.5642640000 10.6302740000 F F F
19.7234530000 8.0380270000 18.9316140000 F F F
10.8113590000 9.8489220000 29.2229980000 F F F
13.8108860000 21.8333200000 29.3231880000 F F F
3.7708850000 8.6088890000 27.2559820000 F F F
14.1991380000 6.2393290000 23.5595050000 F F F
9.3147020000 15.9972590000 24.6432800000 F F F
24.4894380000 16.0669860000 23.0341340000 F F F
20.8687830000 8.7104730000 28.7848930000 F F F
12.9685740000 10.9466480000 18.2593210000 F F F
15.1502990000 11.7158630000 17.6192650000 F F F
8.1355360000 9.0957270000 17.9366030000 F F F
14.3003200000 9.6289060000 16.7428450000 F F F
11.9495920000 7.7935880000 14.7786320000 F F F
8.4417980000 8.2236730000 15.3355200000 F F F
14.8715390000 22.6325310000 16.6445180000 F F F
10.8348230000 21.7018380000 16.5361660000 F F F
14.4148310000 23.0249660000 18.9577770000 F F F
13.4285480000 22.4248780000 13.1824180000 F F F
13.4571080000 21.0627800000 17.7936520000 F F F
12.0333780000 22.6667740000 18.8820510000 F F F
5.9296950000 9.3944630000 15.2251200000 F F F
5.2627850000 7.7055040000 20.8018820000 F F F
5.7079500000 7.9706710000 18.4553800000 F F F
2.6408220000 8.8676340000 17.9062540000 F F F
4.2639420000 9.5309210000 19.6531990000 F F F
4.0074790000 12.8012180000 15.0991730000 F F F
18.1151080000 22.8527570000 5.7647450000 F F F
10.5187690000 22.9443790000 10.6951230000 F F F
18.5611820000 2.2419260000 12.6081620000 F F F
12.2587100000 6.1620350000 5.6915210000 F F F
20.2994890000 4.3554740000 10.7703920000 F F F
20.4227110000 19.7064850000 10.9786020000 F F F
10.6075620000 15.1388060000 7.6279010000 F F F
17.2921880000 17.5856920000 10.5465920000 F F F
17.1907750000 22.7540150000 8.4674230000 F F F
15.7331290000 20.1081450000 9.2665890000 F F F
10.3091120000 15.8023100000 10.3410510000 F F F
10.6179600000 20.1080980000 10.5766580000 F F F
19.5108720000 16.7746800000 11.9371870000 F F F
23.4473050000 13.1737880000 9.0586570000 F F F
0.4794620000 12.3472810000 11.8104380000 F F F
15.8267170000 21.0709790000 6.4487480000 F F F
24.3264840000 14.8172890000 13.1706410000 F F F
7.8657440000 8.7670120000 5.7595520000 F F F
21.2097180000 8.6384850000 18.6894820000 F F F
19.1584520000 8.5997500000 17.4413360000 F F F
19.8653450000 7.6710860000 14.7883360000 F F F
20.0908240000 6.5402680000 18.2448550000 F F F
19.5745680000 5.0356630000 15.8639150000 F F F
21.3900440000 1.7445580000 11.2639150000 F F F
12.1159180000 10.1308730000 28.1742700000 F F F
11.7791960000 10.1189180000 30.4957790000 F F F
9.5497770000 9.4770840000 30.2034770000 F F F
11.3220900000 8.2383360000 29.2005010000 F F F
9.8649380000 9.5128800000 27.9316450000 F F F
10.3858360000 11.4037100000 29.1511790000 F F F
13.1527870000 23.0051440000 28.2576920000 F F F
12.3381750000 21.1824620000 29.5197490000 F F F
14.5197870000 20.7900800000 30.3236600000 F F F
13.5341150000 22.9022780000 30.5295850000 F F F
15.2995620000 22.6090520000 29.0420840000 F F F
14.1121720000 20.8953160000 28.0258170000 F F F
3.2266920000 9.7523870000 26.2174530000 F F F
3.3698380000 7.4358960000 26.1733140000 F F F
4.3484930000 7.4488880000 28.2951920000 F F F
2.2610980000 8.4545650000 27.9327950000 F F F
4.1476150000 9.7834870000 28.3567260000 F F F
5.2813870000 8.7183560000 26.5848750000 F F F
14.0675020000 5.1722350000 22.2975120000 F F F
15.7945070000 5.9326890000 23.7269130000 F F F
14.1805620000 7.1515950000 24.8843560000 F F F
13.9245330000 4.8927480000 24.6309170000 F F F
12.5195530000 6.4063500000 23.4426680000 F F F
14.3897200000 7.4761890000 22.5572820000 F F F
8.1559720000 16.5276490000 25.6463770000 F F F
10.3455870000 15.7791260000 26.0330710000 F F F
10.5745940000 15.4533160000 23.7215430000 F F F
8.3689400000 16.2674610000 23.3489410000 F F F
9.9274720000 17.5068110000 24.5305880000 F F F
8.8259660000 14.4632250000 24.7879710000 F F F
1.0352750000 15.1159770000 22.3068320000 F F F
1.0375890000 17.1512950000 23.5185970000 F F F
23.2457360000 17.0177000000 23.7665590000 F F F
0.0335270000 15.2488680000 24.4378520000 F F F
23.2353210000 15.0072150000 22.5706640000 F F F
24.2256500000 16.9194820000 21.6589460000 F F F
19.2947520000 8.1965340000 28.7245840000 F F F
20.4640580000 9.9883760000 27.8158070000 F F F
22.4387530000 9.2271870000 28.8234260000 F F F
21.2241760000 7.8327580000 27.4169110000 F F F
21.2577660000 7.4337340000 29.6979060000 F F F
20.5321190000 9.6117520000 30.1053210000 F F F
