Li399 C105 H140 O105 P7 F42
1.00
24.564400 0.000000 0.000000
0.000000 24.564400 0.000000
0.000000 0.000000 60.000000
Li C H O P F 
399 105 140 105 7 42 
Selective
Cartesian
0.0000000000 0.0000000000 2.2550000000 F F F
0.0074407791 24.5619110803 5.6896175822 T T T
0.0159849793 24.5531208293 9.0600207556 T T T
0.0366011645 0.1545387840 12.2312944200 T T T
1.7550000000 1.7550000000 0.5000000000 F F F
1.7550000000 1.7550000000 4.0090000000 F F F
1.8146269684 1.7246420815 7.3698808532 T T T
1.9459778242 1.7056814560 10.7136672758 T T T
3.5090000000 0.0000000000 2.2550000000 F F F
3.5423683531 24.5421486329 5.6909685044 T T T
3.5901478513 24.5104224193 9.0715744799 T T T
3.6572719007 24.4000913159 12.7060053781 T T T
5.2640000000 1.7550000000 0.5000000000 F F F
5.2640000000 1.7550000000 4.0090000000 F F F
5.3245706184 1.6937769056 7.4037061629 T T T
5.3439988476 1.6755611478 10.8340536926 T T T
7.0180000000 0.0000000000 2.2550000000 F F F
7.0225224067 24.5339189315 5.6756396114 T T T
7.0694360103 24.4502500190 9.1272823418 T T T
7.2322343988 24.3588981005 12.7374778708 T T T
8.7730000000 1.7550000000 0.5000000000 F F F
8.7730000000 1.7550000000 4.0090000000 F F F
8.7577231783 1.6736329641 7.3689920076 T T T
8.7457043643 1.6467689196 10.7007912468 T T T
10.5280000000 0.0000000000 2.2550000000 F F F
10.5277828230 24.5335207534 5.6830691104 T T T
10.5569268903 24.4717643898 9.0672568170 T T T
10.6240371250 0.0011060025 12.2233834117 T T T
12.2820000000 1.7550000000 0.5000000000 F F F
12.2820000000 1.7550000000 4.0090000000 F F F
12.3012895417 1.6764966122 7.3444359101 T T T
12.3674771092 1.6906594159 10.6011684071 T T T
14.0370000000 0.0000000000 2.2550000000 F F F
14.0429492143 24.5299972137 5.6815281336 T T T
14.0027187372 24.4240353737 9.0847820459 T T T
14.0648397262 24.5396930443 12.3836964557 T T T
15.7910000000 1.7550000000 0.5000000000 F F F
15.7910000000 1.7550000000 4.0090000000 F F F
15.8064729009 1.6761182397 7.3777738332 T T T
15.7872538981 1.6492310897 10.5120797467 T T T
17.5460000000 0.0000000000 2.2550000000 F F F
17.5435078554 24.5324262628 5.6774746177 T T T
17.5850419846 24.4525599482 9.0920735634 T T T
17.5027517694 24.4624087468 12.7156157796 T T T
19.3010010000 1.7550000000 0.5000000000 F F F
19.3010010000 1.7550000000 4.0090000000 F F F
19.2771525580 1.7037667245 7.3559564084 T T T
19.2929961968 1.6176287648 10.7029189854 T T T
21.0550000000 0.0000000000 2.2550000000 F F F
21.0465166617 24.5562673855 5.6675926696 T T T
21.0096442493 24.5230672397 9.0335424768 T T T
21.0882502983 0.0356462716 12.7631235232 T T T
22.8099990000 1.7550000000 0.5000000000 F F F
22.8099990000 1.7550000000 4.0090000000 F F F
22.7863922080 1.7411552497 7.3568520160 T T T
22.7163650013 1.7215573787 10.6253075470 T T T
0.0000000000 3.5090000000 2.2550000000 F F F
0.0162704032 3.4887968266 5.6878571808 T T T
0.0591070437 3.4457296828 9.0769595480 T T T
0.0209223868 3.5064332945 12.2860131822 T T T
1.7550000000 5.2640000000 0.5000000000 F F F
1.7550000000 5.2640000000 4.0090000000 F F F
1.8015993791 5.2351910886 7.3590413018 T T T
1.8644790012 5.2877734361 10.6439175457 T T T
3.5090000000 3.5090000000 2.2550000000 F F F
3.5470382635 3.4828848272 5.6895114828 T T T
3.6069990390 3.4754534346 9.0687394312 T T T
3.4358036570 3.5030132605 12.6196045707 T T T
5.2640000000 5.2640000000 0.5000000000 F F F
5.2640000000 5.2640000000 4.0090000000 F F F
5.3012958811 5.2485646987 7.3504119487 T T T
5.3106919714 5.2429007065 10.7052544453 T T T
7.0180000000 3.5090000000 2.2550000000 F F F
7.0325221279 3.4883418072 5.6895562062 T T T
7.0495155393 3.4767014741 9.0606463758 T T T
7.2224248419 3.5610940336 12.4520407281 T T T
8.7730000000 5.2640000000 0.5000000000 F F F
8.7730000000 5.2640000000 4.0090000000 F F F
8.7914325354 5.2659275468 7.3597797342 T T T
8.8541368123 5.2591101734 10.5993018141 T T T
10.5280000000 3.5090000000 2.2550000000 F F F
10.5187239551 3.4719734935 5.6846379677 T T T
10.5159155778 3.3965000637 8.9968364337 T T T
10.6003536109 3.4044856378 12.2881264791 T T T
12.2820000000 5.2640000000 0.5000000000 F F F
12.2820000000 5.2640000000 4.0090000000 F F F
12.2678575952 5.2188425552 7.3301696476 T T T
12.2816472584 5.2067924385 10.5705692781 T T T
14.0370000000 3.5090000000 2.2550000000 F F F
14.0406833439 3.4759481035 5.6728269597 T T T
14.0228178301 3.4483651180 8.9615139880 T T T
14.0406041522 3.5051384628 12.3302351314 T T T
15.7910000000 5.2640000000 0.5000000000 F F F
15.7910000000 5.2640000000 4.0090000000 F F F
15.7900274167 5.2282244064 7.3220174754 T T T
15.7065843071 5.2008079580 10.4997428760 T T T
17.5460000000 3.5090000000 2.2550000000 F F F
17.5453232394 3.4856581499 5.6806362019 T T T
17.5946935466 3.4877836103 9.0382370810 T T T
17.4493336466 3.5063819849 12.1831052488 T T T
19.3010010000 5.2640000000 0.5000000000 F F F
19.3010010000 5.2640000000 4.0090000000 F F F
19.2961420939 5.2594383639 7.3407092552 T T T
19.3890700479 5.2695539069 10.6957093267 T T T
21.0550000000 3.5090000000 2.2550000000 F F F
21.0388663405 3.4978991117 5.6787779649 T T T
20.9935720272 3.4689187848 9.0436635169 T T T
21.0908461037 3.4416422771 12.5335319423 T T T
22.8099990000 5.2640000000 0.5000000000 F F F
22.8099990000 5.2640000000 4.0090000000 F F F
22.8192009334 5.2239351580 7.3668726733 T T T
22.7824245847 5.2337707216 10.6245743203 T T T
0.0000000000 7.0180000000 2.2550000000 F F F
0.0048848607 7.0095949700 5.6870443507 T T T
0.0426231006 7.0213420162 9.0358418311 T T T
0.0697425878 7.0090133534 12.2862608278 T T T
1.7550000000 8.7730000000 0.5000000000 F F F
1.7550000000 8.7730000000 4.0090000000 F F F
1.7899283040 8.7585533322 7.3446708339 T T T
1.8872618376 8.7612410153 10.7065958669 T T T
3.5090000000 7.0180000000 2.2550000000 F F F
3.5271266918 7.0103165768 5.6725142293 T T T
3.5822302108 7.0048551034 9.0275535822 T T T
3.6203840528 7.0209412948 12.6077969227 T T T
5.2640000000 8.7730000000 0.5000000000 F F F
5.2640000000 8.7730000000 4.0090000000 F F F
5.2772742232 8.7776284412 7.3369729390 T T T
5.2226051162 8.8030511789 10.7130320461 T T T
7.0180000000 7.0180000000 2.2550000000 F F F
7.0237870011 7.0181620092 5.6721061464 T T T
7.0188723230 7.0361076469 9.0395996468 T T T
7.1682087109 7.0384499796 12.2959879823 T T T
8.7730000000 8.7730000000 0.5000000000 F F F
8.7730000000 8.7730000000 4.0090000000 F F F
8.7849913423 8.7733782020 7.3317824461 T T T
8.8474423181 8.7762002588 10.6043858457 T T T
10.5280000000 7.0180000000 2.2550000000 F F F
10.5418271321 7.0227443805 5.6717401921 T T T
10.5911217800 7.0530996383 8.9895903236 T T T
10.5806122455 6.9943951675 12.3897043132 T T T
12.2820000000 8.7730000000 0.5000000000 F F F
12.2820000000 8.7730000000 4.0090000000 F F F
12.2895962827 8.8186360442 7.3259756771 T T T
12.3115757596 8.8516894350 10.6826562384 T T T
14.0370000000 7.0180000000 2.2550000000 F F F
14.0357122789 7.0207242961 5.6808814283 T T T
14.0073310215 7.0358626212 8.9473574256 T T T
14.0034058401 6.9798243354 12.2054450264 T T T
15.7910000000 8.7730000000 0.5000000000 F F F
15.7910000000 8.7730000000 4.0090000000 F F F
15.8104912686 8.8069072614 7.3523683975 T T T
15.7246259394 8.8194789410 10.6235419509 T T T
17.5460000000 7.0180000000 2.2550000000 F F F
17.5416218356 7.0178463018 5.6727673889 T T T
17.5260400857 6.9862876633 9.0221984152 T T T
17.3806224639 6.8593019430 12.2264179198 T T T
19.3010010000 8.7730000000 0.5000000000 F F F
19.3010010000 8.7730000000 4.0090000000 F F F
19.3057750704 8.7660640838 7.3452324617 T T T
19.3204481984 8.6778952372 10.6610612318 T T T
21.0550000000 7.0180000000 2.2550000000 F F F
21.0611611568 7.0054882039 5.6686991900 T T T
21.0530192163 6.9916139903 8.9998563429 T T T
21.2264881430 7.0259379399 12.5614401662 T T T
22.8099990000 8.7730000000 0.5000000000 F F F
22.8099990000 8.7730000000 4.0090000000 F F F
22.7968878473 8.7811440932 7.3386101591 T T T
22.7821842227 8.7519260430 10.5474425013 T T T
0.0000000000 10.5280000000 2.2550000000 F F F
0.0099676412 10.5321542603 5.6807811355 T T T
0.0365061671 10.5387856326 8.9976763032 T T T
24.4935551084 10.5524872199 12.1155034192 T T T
1.7550000000 12.2820000000 0.5000000000 F F F
1.7550000000 12.2820000000 4.0090000000 F F F
1.7946213141 12.2899248465 7.3289245361 T T T
1.8690061172 12.2619497472 10.6290088346 T T T
3.5090000000 10.5280000000 2.2550000000 F F F
3.5237708929 10.5310901938 5.6671818643 T T T
3.5289052265 10.5161820738 8.9940443756 T T T
3.4733089653 10.5120609073 12.7124801135 T T T
5.2640000000 12.2820000000 0.5000000000 F F F
5.2640000000 12.2820000000 4.0090000000 F F F
5.2852002075 12.3049889568 7.3543353823 T T T
5.2262038647 12.2646588970 10.6516006194 T T T
7.0180000000 10.5280000000 2.2550000000 F F F
7.0227635819 10.5332457727 5.6703945663 T T T
7.0303287624 10.5177915724 9.0181310631 T T T
7.1097694251 10.5030838460 12.3167680921 T T T
8.7730000000 12.2820000000 0.5000000000 F F F
8.7730000000 12.2820000000 4.0090000000 F F F
8.7758290198 12.3033567728 7.3463907915 T T T
8.7928318055 12.2938617265 10.6260640343 T T T
10.5280000000 10.5280000000 2.2550000000 F F F
10.5258192461 10.5402838268 5.6642259348 T T T
10.5426202489 10.5555283553 8.9857878268 T T T
10.5180290414 10.5317165410 12.3670606223 T T T
12.2820000000 12.2820000000 0.5000000000 F F F
12.2820000000 12.2820000000 4.0090000000 F F F
12.2894771130 12.3104705857 7.3385638410 T T T
12.3156155426 12.2865726045 10.6551221159 T T T
14.0370000000 10.5280000000 2.2550000000 F F F
14.0441197878 10.5400578088 5.6663531298 T T T
14.0252632894 10.5652999688 9.0212644859 T T T
13.9840509931 10.6452499653 12.6231063397 T T T
15.7910000000 12.2820000000 0.5000000000 F F F
15.7910000000 12.2820000000 4.0090000000 F F F
15.8074560791 12.2794101514 7.3725856106 T T T
15.8249568577 12.2587554826 10.6838967212 T T T
17.5460000000 10.5280000000 2.2550000000 F F F
17.5544241907 10.5353849139 5.6728712978 T T T
17.6047225437 10.5159390170 9.0911467846 T T T
17.5469007639 10.2773228662 12.5792658890 T T T
19.3010010000 12.2820000000 0.5000000000 F F F
19.3010010000 12.2820000000 4.0090000000 F F F
19.2895028726 12.2870551175 7.3583661190 T T T
19.2905313545 12.3208040117 10.7548710768 T T T
21.0550000000 10.5280000000 2.2550000000 F F F
21.0490574325 10.5389803127 5.6770278306 T T T
21.0249684799 10.5507040664 9.0645243957 T T T
20.9905075641 10.5609745116 12.3690328858 T T T
22.8099990000 12.2820000000 0.5000000000 F F F
22.8099990000 12.2820000000 4.0090000000 F F F
22.7996977742 12.2937324048 7.3587061302 T T T
22.7530753738 12.3576446401 10.6117247953 T T T
0.0000000000 14.0370000000 2.2550000000 F F F
0.0026886752 14.0260545992 5.6721609276 T T T
0.0627991961 13.9619206161 9.0490232227 T T T
0.1776572045 13.9710598269 12.3283633675 T T T
1.7550000000 15.7910000000 0.5000000000 F F F
1.7550000000 15.7910000000 4.0090000000 F F F
1.7213129280 15.8079878339 7.3480582104 T T T
1.7260277163 15.8102783460 10.5673194377 T T T
3.5090000000 14.0370000000 2.2550000000 F F F
3.5188508735 14.0587735742 5.6749929578 T T T
3.5257091551 14.0850998352 8.9924962906 T T T
3.5193775665 14.2281184624 12.2811421915 T T T
5.2640000000 15.7910000000 0.5000000000 F F F
5.2640000000 15.7910000000 4.0090000000 F F F
5.2840351321 15.8486977274 7.3530659241 T T T
5.2799164870 15.8579815166 10.6143956107 T T T
7.0180000000 14.0370000000 2.2550000000 F F F
7.0253500090 14.0575261108 5.6809850492 T T T
7.0582941955 14.0976324446 9.0561125410 T T T
7.0152765272 14.0680084482 12.3566670397 T T T
8.7730000000 15.7910000000 0.5000000000 F F F
8.7730000000 15.7910000000 4.0090000000 F F F
8.7917477416 15.8240619026 7.3720025094 T T T
8.9094802894 15.9039949910 10.7669636306 T T T
10.5280000000 14.0370000000 2.2550000000 F F F
10.5256676073 14.0526073986 5.6782799193 T T T
10.5500719515 14.0729631651 9.0492402308 T T T
10.5096659781 14.0014034418 12.4371321066 T T T
12.2820000000 15.7910000000 0.5000000000 F F F
12.2820000000 15.7910000000 4.0090000000 F F F
12.2634999076 15.8304574716 7.3572757255 T T T
12.1742959820 15.9351354635 10.7452726951 T T T
14.0370000000 14.0370000000 2.2550000000 F F F
14.0504639361 14.0578274181 5.6923682052 T T T
14.0357519656 14.1181418688 9.0344939240 T T T
14.1131542561 14.2153989664 12.2210340776 T T T
15.7910000000 15.7910000000 0.5000000000 F F F
15.7910000000 15.7910000000 4.0090000000 F F F
15.8152203497 15.8574287241 7.3572361232 T T T
15.8507046432 15.9230749188 10.6017821550 T T T
17.5460000000 14.0370000000 2.2550000000 F F F
17.5452355426 14.0471102451 5.6807460077 T T T
17.5539416330 14.0649135411 9.0243297369 T T T
17.5220458422 14.1979729320 12.3455187542 T T T
19.3010010000 15.7910000000 0.5000000000 F F F
19.3010010000 15.7910000000 4.0090000000 F F F
19.3226853541 15.7966035014 7.3492178144 T T T
19.3922853548 15.7468826226 10.6790710491 T T T
21.0550000000 14.0370000000 2.2550000000 F F F
21.0543878178 14.0362726762 5.6766683329 T T T
21.0073956354 14.0231333059 9.0414730114 T T T
21.1441570339 14.0064091458 12.6475114665 T T T
22.8099990000 15.7910000000 0.5000000000 F F F
22.8099990000 15.7910000000 4.0090000000 F F F
22.8334339458 15.7636244436 7.3816836490 T T T
22.8395798251 15.7274298404 10.5395056947 T T T
0.0000000000 17.5460000000 2.2550000000 F F F
24.5515739643 17.5656231234 5.6866619598 T T T
24.5586212920 17.6293170558 9.0526459925 T T T
0.0610493520 17.5507760013 12.3113713018 T T T
1.7550000000 19.3010010000 0.5000000000 F F F
1.7550000000 19.3010010000 4.0090000000 F F F
1.7177504078 19.3715394745 7.3693667172 T T T
1.7389728046 19.4429406103 10.7388577716 T T T
3.5090000000 17.5460000000 2.2550000000 F F F
3.4926293330 17.5735215908 5.6929293116 T T T
3.4744452165 17.6165250019 9.0238085078 T T T
3.4864307782 17.5284428609 12.3342184770 T T T
5.2640000000 19.3010010000 0.5000000000 F F F
5.2640000000 19.3010010000 4.0090000000 F F F
5.2902776459 19.3187424363 7.3677688789 T T T
5.2306270675 19.3527560829 10.7622503737 T T T
7.0180000000 17.5460000000 2.2550000000 F F F
7.0395684091 17.5650875779 5.6837701968 T T T
7.0772293541 17.6123912225 9.0824339711 T T T
7.0065692028 17.4811118582 12.4194377787 T T T
8.7730000000 19.3010010000 0.5000000000 F F F
8.7730000000 19.3010010000 4.0090000000 F F F
8.7983337903 19.3244204450 7.3564834931 T T T
8.9125428083 19.2753832381 10.8540837416 T T T
10.5280000000 17.5460000000 2.2550000000 F F F
10.5272395230 17.5635770202 5.6727549515 T T T
10.5260388926 17.6127608964 9.0193094192 T T T
10.6308344725 17.5603987057 12.8736946078 T T T
12.2820000000 19.3010010000 0.5000000000 F F F
12.2820000000 19.3010010000 4.0090000000 F F F
12.2830945765 19.3157397856 7.3558172690 T T T
12.2007186754 19.2841433667 10.7919965442 T T T
14.0370000000 17.5460000000 2.2550000000 F F F
14.0328004726 17.5617785860 5.6817044311 T T T
13.9864891363 17.5840759204 9.0548625164 T T T
14.1138456270 17.5858081606 12.4336162460 T T T
15.7910000000 19.3010010000 0.5000000000 F F F
15.7910000000 19.3010010000 4.0090000000 F F F
15.8138828669 19.3007119678 7.3817628575 T T T
15.8129870436 19.3057636017 10.6606962054 T T T
17.5460000000 17.5460000000 2.2550000000 F F F
17.5676922281 17.5607305150 5.6729041426 T T T
17.6595364292 17.5847347038 9.0345415422 T T T
17.6101370941 17.6144467333 12.4027582315 T T T
19.3010010000 19.3010010000 0.5000000000 F F F
19.3010010000 19.3010010000 4.0090000000 F F F
19.3358926864 19.3234283751 7.3419026615 T T T
19.3766408967 19.3458613148 10.7269698534 T T T
21.0550000000 17.5460000000 2.2550000000 F F F
21.0747732568 17.5434011613 5.6868159633 T T T
21.0678829962 17.5589967416 9.0487372632 T T T
21.0481324043 17.4638298248 12.3858887477 T T T
22.8099990000 19.3010010000 0.5000000000 F F F
22.8099990000 19.3010010000 4.0090000000 F F F
22.7971767769 19.3482008717 7.3678392439 T T T
22.7613639970 19.3544704252 10.7076795896 T T T
0.0000000000 21.0550000000 2.2550000000 F F F
24.5525752334 21.0768999616 5.6762917659 T T T
24.5114065690 21.1382178438 9.1143851855 T T T
24.4676513208 21.2405444890 12.6132649376 T T T
1.7550000000 22.8099990000 0.5000000000 F F F
1.7550000000 22.8099990000 4.0090000000 F F F
1.7765480936 22.7976891598 7.3703421430 T T T
1.8302223463 22.7955539325 10.7284232472 T T T
3.5090000000 21.0550000000 2.2550000000 F F F
3.5216815656 21.0557244827 5.6762724894 T T T
3.5334338921 21.0508115773 9.0528934537 T T T
3.4820575881 21.0328950687 12.7204535483 T T T
5.2640000000 22.8099990000 0.5000000000 F F F
5.2640000000 22.8099990000 4.0090000000 F F F
5.3209112718 22.7555308679 7.3799433359 T T T
5.3022420310 22.7161071831 10.7183153199 T T T
7.0180000000 21.0550000000 2.2550000000 F F F
7.0322332227 21.0430866475 5.6690989084 T T T
7.0895736555 20.9769788439 9.1193287159 T T T
6.9937216084 20.9542296945 12.5613988066 T T T
8.7730000000 22.8099990000 0.5000000000 F F F
8.7730000000 22.8099990000 4.0090000000 F F F
8.7788815783 22.7601393156 7.3705796258 T T T
8.8668311072 22.6356713320 10.7679501044 T T T
10.5280000000 21.0550000000 2.2550000000 F F F
10.5318266572 21.0482894798 5.6700007355 T T T
10.5584194968 21.0158499529 9.0704847339 T T T
10.6208174010 20.9656474343 12.7984782932 T T T
12.2820000000 22.8099990000 0.5000000000 F F F
12.2820000000 22.8099990000 4.0090000000 F F F
12.2833282492 22.7535687143 7.3633867908 T T T
12.2978271822 22.6603256122 10.7883646522 T T T
14.0370000000 21.0550000000 2.2550000000 F F F
14.0456414728 21.0452553038 5.6828973568 T T T
14.0169206592 21.0104973966 9.0915483699 T T T
14.0899517577 20.9626556964 12.5240282259 T T T
15.7910000000 22.8099990000 0.5000000000 F F F
15.7910000000 22.8099990000 4.0090000000 F F F
15.7897862151 22.7722484563 7.3857691156 T T T
15.8186716079 22.7559209220 10.7005043801 T T T
17.5460000000 21.0550000000 2.2550000000 F F F
17.5490006871 21.0555572347 5.6819367576 T T T
17.6095803849 21.0674746316 9.0673785240 T T T
17.4998898930 20.9883144249 12.4641298880 T T T
19.3010010000 22.8099990000 0.5000000000 F F F
19.3010010000 22.8099990000 4.0090000000 F F F
19.3063099889 22.7967370750 7.3512578952 T T T
19.3696004976 22.8009940917 10.8929056207 T T T
21.0550000000 21.0550000000 2.2550000000 F F F
21.0564323648 21.0704645890 5.6651757739 T T T
21.0283510785 21.0852070480 9.0493407169 T T T
20.9598279912 20.8758889134 12.8073221359 T T T
22.8099990000 22.8099990000 0.5000000000 F F F
22.8099990000 22.8099990000 4.0090000000 F F F
22.7912982571 22.8200326935 7.3578079874 T T T
22.6605130890 22.8522321232 10.7686395993 T T T
9.4236756101 5.9117556029 17.4144156803 T T T
23.8705450228 13.9822205595 18.2834226323 T T T
7.6064612993 2.7838062305 19.8888825893 T T T
14.3755024590 24.5071046872 18.9880221760 T T T
14.4838251273 5.6797834104 17.5869189070 T T T
15.4662329706 3.0710339641 17.1200600774 T T T
12.2006248354 19.3543976499 18.8152179763 T T T
8.2712289922 8.5439762015 16.5156397961 T T T
7.8683927093 10.6739285695 15.7990963681 T T T
8.0869271566 10.6729039822 17.3049748500 T T T
1.1717092308 16.0245719213 19.0019097725 T T T
0.7765786305 18.2626844345 19.2035782553 T T T
2.0890127044 17.9109309945 19.9185105118 T T T
4.1302064006 5.1256620391 14.9205922080 T T T
5.1988633337 7.1474809560 15.2750979910 T T T
5.9386889364 6.0233163035 15.9877045604 T T T
12.0279867908 7.0907658801 16.6626318932 T T T
13.9378875128 8.1681224749 15.9287524705 T T T
12.6993661936 9.0267935455 15.6578933718 T T T
4.9475055342 21.8267212168 20.1599461976 T T T
4.3766678266 24.0285714448 20.4475620081 T T T
3.2969734577 23.1315671070 21.0455637238 T T T
5.8985096290 13.8916413196 18.9904382806 T T T
3.8524600405 12.9815393754 19.4617781946 T T T
4.6424701329 13.1602472698 20.7627661863 T T T
7.0426533175 22.5746357445 15.1416636283 T T T
6.9701677856 21.0397392865 16.8466968800 T T T
6.3664662560 20.4104878328 15.5991047784 T T T
3.5205530841 22.8221128762 15.2186025635 T T T
2.7486601736 21.6532282955 17.0412417029 T T T
2.3373499383 20.9133068278 15.7696549758 T T T
9.6572388694 18.7558022813 19.9200997631 T T T
8.2781810172 16.9821672598 19.5173435692 T T T
7.5541461118 18.0042675563 20.4001416789 T T T
15.5078480585 7.7159315195 19.4476706635 T T T
16.1497373673 9.3667503125 20.8671104836 T T T
16.3189008426 9.8386235972 19.4223449794 T T T
4.4152762255 17.7100145508 16.8378961938 T T T
3.3626996802 15.8128466737 16.0726658124 T T T
4.8569470942 15.7502996824 15.7171671041 T T T
24.4525041207 21.4392812722 21.0585124774 T T T
23.6000137111 23.2242841482 19.8815077412 T T T
22.9668753457 23.1734994346 21.2722641099 T T T
21.2073059720 1.9510138321 20.4093013305 T T T
22.2443627990 3.9649902809 20.0914743961 T T T
23.2853263471 2.9219012431 20.4685556725 T T T
12.8805193561 3.4805144804 18.6131184989 T T T
10.7780465970 3.0384929385 19.3100872403 T T T
11.7798270068 2.5442578661 20.3616105567 T T T
8.2319416272 5.8037267907 20.1468244458 T T T
9.6610704401 7.5892577581 19.9605616054 T T T
8.4762418111 7.9490778320 20.8341377445 T T T
8.8578322811 0.1386755325 20.6265039353 T T T
8.5446001760 22.4743644860 21.0008392773 T T T
9.9523367614 22.7085529032 20.4623550264 T T T
12.2718638687 0.3275672653 17.1417283126 T T T
10.3792458498 24.4537034790 15.9436474453 T T T
11.5615963357 23.6490989404 15.3820430082 T T T
23.0119101916 20.4802906428 15.0622418118 T T T
20.9679496089 19.6968115949 15.8023353929 T T T
22.0968344492 19.0684374507 16.6150853625 T T T
21.5677200736 8.8795315725 14.8497282041 T T T
21.9301087139 10.5991662678 16.3073627243 T T T
20.5035286426 10.6863504412 15.7702586534 T T T
1.5036172143 1.2745103801 17.7458446254 T T T
0.9399175769 0.8787543701 15.5533156121 T T T
0.9434204970 2.3897737900 15.8111380237 T T T
13.4913924968 16.7843993382 19.7545914191 T T T
14.3088501890 14.6495505240 19.6452261917 T T T
13.7505302945 14.9187927942 21.0469010045 T T T
7.9088449700 3.2571062406 16.8579816269 T T T
6.2990372679 1.8257951984 16.0858671688 T T T
6.7796937174 1.3334979506 17.4456637559 T T T
3.8015606648 11.6009473175 15.3465799871 T T T
1.9301997016 10.2697727663 15.7035029366 T T T
1.8810952555 11.5062663582 16.6066695380 T T T
18.1455220717 13.1410773013 20.4592040253 T T T
19.7830053900 12.2341440362 19.1258355541 T T T
20.1800019872 12.0858088761 20.6017222540 T T T
16.3896084459 2.1796096733 19.7001681905 T T T
17.5711896423 3.6124504188 21.0318172681 T T T
17.3862274061 4.2582774631 19.6590928269 T T T
11.3147540218 13.0866634444 15.7663243670 T T T
10.9300203733 14.8402871196 17.1997297837 T T T
9.5966522289 14.3323621190 16.6463980057 T T T
24.0178748482 11.0444368915 19.3546983304 T T T
24.4514708378 8.7950957857 19.2585036691 T T T
24.2377988901 9.2277610713 20.7158397944 T T T
21.6203595353 15.7817663186 19.5742746922 T T T
20.5777792010 17.7166515526 20.1897982234 T T T
19.5958096533 16.5554411834 20.2946228823 T T T
20.9149081059 1.9683930714 15.1413692264 T T T
20.8975981991 24.3813319587 15.9858532442 T T T
20.3539767831 0.7985864266 17.0170020886 T T T
20.0627289077 21.8083245130 19.0962963991 T T T
18.2446117165 21.9611307845 20.4626848559 T T T
18.3159003677 23.1957443762 19.5794826086 T T T
16.5110113437 11.1845654260 15.1153232183 T T T
14.8451946906 12.5791833146 15.8585662341 T T T
16.2075418432 13.0835746598 16.3380212982 T T T
17.6249091295 19.3994061805 17.4056958010 T T T
15.7853010948 18.8101642592 16.1718632339 T T T
15.8036878675 20.3247116742 16.3783872577 T T T
0.0722336201 5.4939965909 17.6985255339 T T T
23.3294283498 5.7500484931 15.8380814530 T T T
0.0155499339 6.6136146191 15.6985302525 T T T
17.0394769282 5.4030951196 16.1184749250 T T T
19.2717663470 5.4108236099 15.6863266399 T T T
18.6884101425 6.8024504852 15.4268138585 T T T
4.8164925018 3.2626757739 20.1806866187 T T T
3.3641293381 4.6843693519 19.1616473790 T T T
3.0191304542 4.5729789452 20.6400445499 T T T
8.7247874556 11.0650081582 15.2373780539 T T T
6.9416656319 11.1683009418 15.4981551640 T T T
8.8714313302 11.3559788552 17.6312843965 T T T
7.1609904843 10.8094570251 17.8716016772 T T T
0.9139262806 18.9753760594 18.3835819255 T T T
0.0003289233 18.6218653757 19.8815645845 T T T
2.9703440734 18.3670706448 19.4551418399 T T T
2.0660399930 18.1319308501 20.9878239521 T T T
5.8168133770 7.7075996630 14.5594205033 T T T
4.6549455797 7.8078457832 15.9603838251 T T T
6.8573146955 5.6971687881 15.4849950599 T T T
6.1362277604 6.2235472769 17.0415474621 T T T
14.6717537752 8.6498457914 16.5808389282 T T T
14.4312955786 7.7946603309 15.0176479032 T T T
12.6328810313 9.9159214271 16.2904376838 T T T
12.5829108339 9.2953320748 14.5970403020 T T T
5.0112490465 24.5304422168 21.1853864925 T T T
3.9674964566 0.1863772585 19.7380950541 T T T
3.0375801148 23.3722421845 22.0788914813 T T T
2.3907039724 23.0992113438 20.4275287600 T T T
2.8633357881 13.4471279744 19.4706910895 T T T
3.7932930299 11.9331846432 19.1576415097 T T T
4.2310405913 13.9390196318 21.4159738812 T T T
4.7712798325 12.2245247766 21.3139667243 T T T
7.9634427197 20.6530973993 17.0892599448 T T T
6.3171295296 20.9984995615 17.7227297328 T T T
6.8258264120 19.4589319427 15.3219276398 T T T
5.2784757209 20.3150655217 15.6441107267 T T T
3.4695229791 21.0935801090 17.6460725305 T T T
1.8960126384 21.9745091861 17.6465376696 T T T
2.6577519960 19.8687578211 15.7581769057 T T T
1.2768280417 21.0083167700 15.5246951615 T T T
7.8912935424 16.9452847420 18.4927124617 T T T
8.3037802258 15.9759581506 19.9425167323 T T T
6.6068141475 18.3567686777 19.9829785658 T T T
7.4101167859 17.6619049326 21.4305118961 T T T
15.3062686002 9.8382486836 21.3787560121 T T T
17.0665539740 9.4406092235 21.4556658866 T T T
15.7782647670 10.7600099224 19.1969113554 T T T
17.3668949317 9.8833982092 19.1147438245 T T T
3.0555179363 15.0286979079 16.7717747138 T T T
2.7091543509 15.8118260166 15.1885554282 T T T
5.3744280361 14.9038007794 16.1801183505 T T T
5.0442229926 15.7587189257 14.6282515780 T T T
24.2957427783 24.0592935180 19.7446606328 T T T
22.8586605005 23.2086218590 19.0792509960 T T T
23.0654904294 24.1097927969 21.8246932568 T T T
21.9199863748 22.8517761086 21.2570047219 T T T
22.2607877364 4.2300443470 19.0291936192 T T T
22.2872204053 4.8715306939 20.6978154488 T T T
24.1287542652 2.8813705264 19.7745386424 T T T
23.6493868505 3.0230573222 21.4991064593 T T T
10.1293981589 3.8328262623 19.6806699611 T T T
10.1829781184 2.2336149549 18.8764555378 T T T
11.6572843995 3.0164756243 21.3390702696 T T T
11.7968067856 1.4549760815 20.4543349888 T T T
10.5718871951 7.3430576450 20.5162704968 T T T
9.8722430817 8.3274179392 19.1890129874 T T T
8.7389295087 8.3986080109 21.7929374203 T T T
7.7240144880 8.5425804202 20.3055204410 T T T
8.5126316286 21.9282163994 21.9455296828 T T T
7.8671094546 22.0036805130 20.2811350333 T T T
10.7447208931 22.5856437080 21.2061338405 T T T
10.1835484683 22.1122776533 19.5796527768 T T T
9.6208467523 23.8317173754 16.4284666420 T T T
9.9060720336 0.5618088765 15.2149734182 T T T
11.4008934619 22.5725629133 15.3803550385 T T T
11.8890979860 24.0030095731 14.3839963365 T T T
20.4033190107 20.4399823031 16.3685264387 T T T
20.3055875810 18.9703232853 15.3218611138 T T T
21.9959448040 19.2578723509 17.6832241812 T T T
22.2687668648 18.0071117530 16.4098306182 T T T
21.9816372306 10.5240090236 17.3962508598 T T T
22.5785828458 11.3951089526 15.9306529269 T T T
19.7489103366 10.3352002424 16.4812447275 T T T
20.2400240545 11.6681504360 15.3737408403 T T T
1.7332539824 0.5624730536 14.8622617874 T T T
24.5352868941 0.4962402298 15.2036994547 T T T
1.6482946749 2.9387745046 15.1778101466 T T T
24.5110228637 2.8414933359 15.7552507732 T T T
13.7248034675 13.8987114270 19.1008878253 T T T
15.3692030359 14.3853867474 19.6721648702 T T T
12.9568740367 14.2236264374 21.3287567792 T T T
14.5298022430 14.9513745640 21.8146367194 T T T
5.3120555002 2.3013359941 16.1182865551 T T T
6.3393563327 1.0572119613 15.3109634530 T T T
5.9900969567 1.2396083384 18.1893437256 T T T
7.3757494219 0.4199710379 17.3906668803 T T T
1.0456818687 10.1582468037 15.0617044047 T T T
2.1245839174 9.3374995718 16.2494856082 T T T
1.0690281301 12.1965358083 16.3600772106 T T T
1.8565631459 11.2431504737 17.6656552259 T T T
19.6384722863 11.2750902396 18.6195432584 T T T
20.4852940323 12.8527864470 18.5582134230 T T T
20.3230954603 11.0450222831 20.9041361970 T T T
21.0510708427 12.6928891639 20.8635137918 T T T
17.0016658827 4.1140317897 21.8198298890 T T T
18.6182240566 3.5089198986 21.3188072853 T T T
16.8736215421 5.2163277658 19.6985439932 T T T
18.3068385448 4.3348739667 19.0749797931 T T T
11.0730565624 14.5865332320 18.2555200817 T T T
11.0892960748 15.9100536188 17.0308870201 T T T
8.8761696209 14.0438123468 17.4160034534 T T T
9.1283224886 15.0388874424 15.9482491105 T T T
23.6450486030 8.1643549646 18.8728003595 T T T
0.8647610842 8.3446320064 19.0740132063 T T T
23.4400299433 8.6774279245 21.2170779112 T T T
0.5951443223 9.2171080605 21.3062627400 T T T
20.9485362138 18.0706217057 21.1594304087 T T T
20.1922926570 18.5513604774 19.5980935965 T T T
19.1033827078 16.4677943617 21.2662351328 T T T
18.8473765873 16.5630212181 19.4944698537 T T T
20.2294484719 23.5407841102 15.7794113515 T T T
21.9114820625 24.0249082670 16.2010070308 T T T
19.2666855682 0.7466013598 17.1327898134 T T T
20.8526991828 0.7407759464 17.9847280051 T T T
17.4857248669 21.2473937482 20.1247505205 T T T
18.1135449506 22.1872350723 21.5231898479 T T T
17.3811104140 23.4035276710 19.0554970491 T T T
18.6855693106 24.0906547819 20.0917100972 T T T
14.3083345615 13.2963995997 15.2298390542 T T T
14.2029538111 12.2179003503 16.6630722571 T T T
16.5448217520 13.9901636764 15.8192110446 T T T
16.2792139808 13.2221233498 17.4182731522 T T T
15.7140948723 18.5180524205 15.1135794080 T T T
15.0171932976 18.2908664026 16.7545667682 T T T
16.0706220296 20.8741823105 15.4631364260 T T T
14.8869656050 20.7361873931 16.8020534606 T T T
23.1424113928 5.1143561752 14.9640191207 T T T
22.4326057340 6.3220475228 16.0941545712 T T T
0.7175698911 6.2338541321 14.9387035843 T T T
24.3621579828 7.6698523090 15.5167330241 T T T
20.0574092404 5.3958601001 16.4435253213 T T T
19.6023145924 4.8968718846 14.7742422340 T T T
18.9691885470 7.5451758661 16.1800369942 T T T
18.8825365766 7.1839406995 14.4140531063 T T T
3.4814664854 5.7121893168 18.8181331781 T T T
2.6804402348 4.1235448040 18.5185081053 T T T
3.3155085252 5.4541975770 21.2190760512 T T T
1.9725229652 4.3192331900 20.8177461909 T T T
7.7511286911 9.2452471578 15.4879903954 T T T
8.5582075351 9.3127265663 17.5633554313 T T T
8.4434331632 7.3401358203 16.4862004870 T T T
0.3399448246 16.9998409138 18.6263697476 T T T
2.1979133052 16.4628298592 19.7470621220 T T T
1.0180624126 14.8517065387 18.6931701606 T T T
4.1869602340 6.4093133961 14.4815617441 T T T
4.9757688442 4.9074666675 15.9159920495 T T T
3.4079162559 4.2812601869 14.4172160407 T T T
13.3892374411 7.0078154339 16.6284825794 T T T
11.5831916089 8.1567720530 16.0111195747 T T T
11.3381291968 6.2626254021 17.2131125539 T T T
5.2120310202 23.0841603453 19.7160555809 T T T
3.9080711195 21.8127776233 21.0209326786 T T T
5.5614994213 20.8488852022 19.8063954626 T T T
4.6691791375 13.6822217712 18.4809149999 T T T
5.9521616204 13.6023125038 20.3119167301 T T T
6.8381639090 14.3004734283 18.3471202822 T T T
7.1370838298 22.4579206448 16.4622584324 T T T
6.6791153872 21.4073072811 14.5528953409 T T T
7.2529701667 23.6043268605 14.5209479581 T T T
3.4109463741 22.8637907834 16.5440808590 T T T
3.0829225381 21.6346791437 14.7115605989 T T T
3.9638579337 23.7134773345 14.5208282960 T T T
9.6418846695 17.4955689737 19.4565478197 T T T
8.4733475791 19.1335389532 20.4334581724 T T T
10.6253878059 19.4840112396 19.8765308020 T T T
15.8342507516 7.9495018551 20.7160851769 T T T
15.7021542488 8.7663023064 18.6460556723 T T T
15.0894755382 6.6396117959 19.0496655336 T T T
3.2106530933 17.0981680168 16.7309571979 T T T
5.4016563480 16.9732825276 16.2741442373 T T T
4.5797469833 18.7898427844 17.3495714132 T T T
24.3569117889 21.9877749204 19.8105125117 T T T
23.7353212545 22.1501118437 21.9567190752 T T T
0.5352886762 20.4570223551 21.3125245627 T T T
20.9867929783 3.2838218184 20.3686017595 T T T
22.5440627051 1.6750690243 20.3782305514 T T T
20.3452802253 1.1098943562 20.4425217948 T T T
11.6156171813 3.5862174463 18.2565992069 T T T
13.0700551998 2.9670620424 19.8233581822 T T T
13.8134842793 3.8689221584 17.9068715628 T T T
9.1829972710 6.3550049305 19.3273243319 T T T
7.8661365726 6.6396381581 21.1030989356 T T T
7.8251436846 4.6724316961 19.9798165149 T T T
8.0526287982 23.8318171265 21.2439266283 T T T
9.9242151522 24.1183485063 20.0649154775 T T T
8.6568974369 1.3380865249 20.5642901106 T T T
10.9921152325 0.7109291726 16.9772287819 T T T
12.6390110764 23.9185855670 16.3101541913 T T T
13.0154755334 0.8360328176 17.9572218564 T T T
21.6971492228 20.4207684161 14.7301245424 T T T
23.2929531798 19.7990279757 16.1594416983 T T T
23.8347566837 21.0986905012 14.4018034831 T T T
22.4243708827 9.3202980202 15.7612324827 T T T
20.5197176462 9.7184865221 14.6582934192 T T T
21.7063419102 7.8531443982 14.2039186830 T T T
1.2034918990 0.2945156449 16.8507805187 T T T
1.4062316169 2.5063686683 17.1829675881 T T T
1.8171688779 1.0761704474 18.8919893256 T T T
14.1667461274 15.9294109513 18.9651898355 T T T
13.1701307943 16.2515008999 20.9390424744 T T T
13.2139226594 17.9129667642 19.4136931481 T T T
7.2765240816 2.8657336071 15.7456171102 T T T
7.6627239542 2.4113219778 17.8878208620 T T T
8.6163683180 4.2337524535 16.9446591068 T T T
3.0816505823 10.5381173734 14.8340590510 T T T
3.1393794052 12.1960879581 16.3387014218 T T T
4.8655315277 11.9430811316 14.8936157994 T T T
18.5109667073 12.9133196440 19.1643912423 T T T
19.0345162768 12.6128243501 21.3184288455 T T T
17.1405150977 13.7286479454 20.7754253898 T T T
17.0129489846 2.2686175810 20.8650174140 T T T
16.4990428139 3.3145361881 18.9636275316 T T T
15.7835354012 1.2104744478 19.2836067725 T T T
11.9193678272 14.1024046304 16.4250570348 T T T
9.9628397983 13.1415613440 15.8973821371 T T T
11.8895082341 12.2520682991 15.1112066344 T T T
24.4082259485 10.0638411396 18.5293554727 T T T
23.8115840243 10.6174553525 20.6014989943 T T T
23.8608305413 12.1938833516 18.9904434317 T T T
21.7061933023 17.1207665296 19.4772268843 T T T
20.4443537539 15.3858418507 20.1090001080 T T T
22.4852727196 15.0094478763 19.2255933881 T T T
20.9904863610 0.6566650103 14.7699221119 T T T
20.6592898154 2.1102585211 16.4301472185 T T T
21.0790295219 2.8852631575 14.3558944802 T T T
19.5617641172 21.3618395887 20.2738560692 T T T
19.3104435474 22.8150513263 18.5845965396 T T T
21.0634782561 21.3862760801 18.5702394667 T T T
15.1931302730 11.4198759380 15.0140761122 T T T
17.1231501944 11.9983501897 15.9767657376 T T T
17.0898271962 10.3229636992 14.4688612394 T T T
17.0854575073 18.3951946242 16.6637122809 T T T
16.8696120616 20.5201466361 17.3399277028 T T T
18.6537603555 19.3028085262 18.0251783321 T T T
23.6464128541 4.9028826662 16.9778557236 T T T
0.6543723340 6.5039133334 16.9940051849 T T T
0.3912671592 5.1714874676 18.8114733117 T T T
18.1372200504 4.6705802681 16.2379890889 T T T
17.2415857395 6.5937730159 15.5572325788 T T T
15.9324077900 5.0159814835 16.4787463230 T T T
4.6704593935 4.0207025762 19.0872078436 T T T
3.8473914559 3.4506217315 21.0807792085 T T T
5.7349251983 2.4676758346 20.3275610620 T T T
12.1758873740 10.7985886593 19.3415120587 T T T
13.9710477520 21.8769759363 19.9108720227 T T T
4.4790309590 8.8129274871 19.0131710021 T T T
16.1355669506 0.8823101578 15.1430746900 T T T
11.0003380420 19.5345857478 15.6558232742 T T T
23.0458179652 14.7224734297 15.1069632602 T T T
19.9533773514 7.3970617390 19.2858108933 T T T
11.2066023883 10.8789662258 18.0114852043 T T T
11.8696866029 12.3936938552 19.6492465916 T T T
13.1769390854 10.7182626586 20.6388871414 T T T
13.4751171125 11.2592388259 18.3911358692 T T T
12.5079056238 9.2140765461 18.9692373768 T T T
10.8997898805 10.3379494909 20.2573202137 T T T
12.9130755540 21.1729319002 18.8008260024 T T T
13.1268957957 21.2371258692 21.1270397949 T T T
14.9934290874 22.6449811200 20.9253395354 T T T
12.9901130448 23.2436036079 19.9208770981 T T T
14.7605524064 22.6069731542 18.6068013566 T T T
14.9469213259 20.5935291043 19.7980412494 T T T
4.8528657269 9.8502504688 17.7801130925 T T T
5.8803675677 7.9842342578 18.7286707351 T T T
4.0913704586 7.7593249816 20.2056958440 T T T
3.6937446958 7.8538712049 17.9109558970 T T T
3.0602637723 9.6424312016 19.2664505328 T T T
5.2557666579 9.7933887424 20.0747100921 T T T
15.3087494392 0.0910856656 13.9310391903 T T T
15.5602768667 24.4105766262 16.2177061200 T T T
16.9391149639 1.7098555529 16.3281896195 T T T
14.8486813594 1.9104914975 15.3508591000 T T T
16.7485065979 1.9438932451 14.0219080456 T T T
17.4646792030 24.4860573535 14.8637100686 T T T
11.1829967757 18.1639064714 14.6972374348 T T T
12.2628211593 20.2240384325 14.8417780097 T T T
10.8285991561 20.8697542013 16.5890580998 T T T
12.0603726604 18.8843363067 16.7691660514 T T T
9.7229620019 18.8208319164 16.3737039853 T T T
9.9620607389 20.2147157688 14.5072641469 T T T
22.5175763640 15.6907430158 13.8551018346 T T T
22.1699853587 13.4524213167 14.4286137223 T T T
23.5719785019 13.6751595625 16.3195791268 T T T
21.7568374202 15.1317573549 16.0103137674 T T T
23.9373317178 15.9417718384 15.7070177763 T T T
24.3717763551 14.2276975403 14.1958260837 T T T
21.4131182994 7.7361080878 19.9578805592 T T T
19.2803329592 8.6794928432 20.0676523081 T T T
18.4919956963 7.0734682694 18.5580096889 T T T
19.5660037856 6.3986983516 20.5144608203 T T T
20.6214620878 6.1405640901 18.4553697026 T T T
20.3183835010 8.4019522828 18.0012684099 T T T
