Li399 C105 H140 O105 P7 F42 
1.00
24.564400 0.000000 0.000000
0.000000 24.564400 0.000000
0.000000 0.000000 60.000000
Li C H O P F 
7 105 140 105 7 42 
Selective Dynamics
Cartesian
    9.6812299999999993    5.6463999999999999   17.6203000000000003    F  F  F
   24.0106000000000002   14.1338000000000008   18.6131999999999991    T  T  T
    7.5564499999999999    2.7996599999999998   19.9069000000000003    F  F  F
   14.7012999999999998   24.5414999999999992   18.9677000000000007    T  T  T
   14.2911999999999999    5.5181100000000001   17.5384999999999991    F  F  F
   15.5678999999999998    2.9967100000000002   17.1125000000000007    F  F  F
   12.0752000000000006   19.5148000000000010   19.8062000000000005    T  T  T
    8.3490500000000001    8.3466799999999992   16.5293999999999990    T  T  T
    7.7918500000000002   10.3430000000000000   15.5091000000000001    T  T  T
    8.0434999999999999   10.5844000000000005   17.0234999999999985    T  T  T
    1.2306800000000000   16.2320999999999991   19.4304999999999986    T  T  T
    0.7836140000000000   18.4675000000000011   19.5011000000000010    T  T  T
    2.1239800000000000   18.1932000000000009   20.1634999999999991    T  T  T
    3.6676899999999999    5.6380400000000002   15.0830000000000002    F  F  F
    5.3493399999999998    7.1055900000000003   15.6264000000000003    T  T  T
    5.4501200000000001    5.7847400000000002   16.4154000000000018    F  F  F
   12.0492000000000008    6.9571399999999999   16.6300999999999988    T  T  T
   13.8351000000000006    8.0939200000000007   15.7804000000000002    T  T  T
   12.7143999999999995    9.1063799999999997   16.0349000000000004    T  T  T
    4.8169899999999997   21.6237999999999992   20.6557999999999993    T  T  T
    4.6051900000000003   23.8807000000000009   20.2991999999999990    T  T  T
    3.3770799999999999   23.3732000000000006   21.0278999999999989    T  T  T
    5.9531599999999996   13.7708999999999993   19.5424000000000007    T  T  T
    3.7591000000000001   12.9511000000000003   19.4469999999999992    T  T  T
    4.4260500000000000   12.7362000000000002   20.8469000000000015    T  T  T
    7.1878099999999998   22.6548000000000016   15.5765999999999991    T  T  T
    6.8712000000000000   21.0325999999999986   17.1805999999999983    T  T  T
    6.2724000000000002   20.5835000000000008   15.8209999999999997    T  T  T
    3.7484400000000000   23.1123000000000012   15.8404000000000007    T  T  T
    2.2047400000000001   21.7989999999999995   16.9773999999999994    T  T  T
    2.1402700000000001   21.5013000000000005   15.4822000000000006    T  T  T
    9.5977099999999993   18.5730000000000004   20.5700000000000003    T  T  T
    8.7312700000000003   16.6477000000000004   19.7877000000000010    T  T  T
    7.6461399999999999   17.4840000000000018   20.4102999999999994    T  T  T
   15.1879000000000008    7.6373400000000000   19.2376000000000005    T  T  T
   16.0210000000000008    9.2029399999999999   20.7068000000000012    T  T  T
   16.2645000000000017    9.7080199999999994   19.2955000000000005    T  T  T
    4.6521400000000002   17.4683999999999990   17.4591999999999992    T  T  T
    3.2708900000000001   16.0000999999999998   16.4338000000000015    T  T  T
    4.7422700000000004   15.8142999999999994   15.9494000000000007    T  T  T
   24.3628999999999998   21.6678999999999995   21.1183000000000014    T  T  T
   23.3567000000000000   23.3389999999999986   19.9243999999999986    T  T  T
   22.7169999999999987   23.2304999999999993   21.3118000000000016    T  T  T
   21.1527999999999992    2.1238000000000001   20.7759999999999998    F  F  F
   22.4309000000000012    3.9449600000000000   20.1751000000000005    F  F  F
   23.3706999999999994    2.7031900000000002   20.3799999999999990    F  F  F
   12.8108000000000004    3.4155600000000002   18.7107999999999990    F  F  F
   10.7978000000000005    2.7138300000000002   19.5371999999999986    F  F  F
   11.9059000000000008    2.5694100000000000   20.6121000000000016    F  F  F
    8.4840900000000001    5.7410800000000002   20.2496000000000009    F  F  F
    9.9452400000000001    7.6224100000000004   20.0124999999999993    T  T  T
    8.6715499999999999    7.9550400000000003   20.6652999999999984    T  T  T
    8.8370700000000006    0.3036200000000000   21.1183000000000014    F  F  F
    8.3144899999999993   22.5441000000000003   20.8491000000000000    T  T  T
    9.7480600000000006   22.8823000000000008   20.5015999999999998    T  T  T
   12.3313000000000006    0.2057900000000000   17.3592000000000013    F  F  F
   10.4771000000000001   24.2717999999999989   16.0864000000000011    T  T  T
   11.7020000000000000   23.5455000000000005   15.5454000000000008    T  T  T
   22.8935999999999993   20.9477000000000011   15.7731999999999992    T  T  T
   21.1732000000000014   19.4532999999999987   16.0681000000000012    T  T  T
   22.3917999999999999   18.9986999999999995   16.8744000000000014    T  T  T
   21.9173000000000009    8.8102300000000007   15.0840999999999994    T  T  T
   21.7945999999999991   10.5090000000000003   16.6957999999999984    T  T  T
   20.4065000000000012   10.3149999999999995   16.0037999999999982    T  T  T
    1.7176899999999999    1.5428800000000000   17.7589000000000006    F  F  F
    1.1251700000000000    0.7943480000000001   15.6998999999999995    F  F  F
    1.0720799999999999    2.3009400000000002   15.7319999999999993    F  F  F
   13.4984000000000002   16.8418999999999990   20.4051000000000009    T  T  T
   14.2321000000000009   14.6921999999999997   19.7551999999999985    T  T  T
   13.9365000000000006   14.8344000000000005   21.2575000000000003    T  T  T
    8.0152900000000002    3.0802800000000001   17.0014000000000003    F  F  F
    6.2098699999999996    1.9345100000000000   16.1024999999999991    F  F  F
    6.6650299999999998    1.2244999999999999   17.4219000000000008    F  F  F
    3.7071900000000002   11.4306000000000001   15.3666000000000000    T  T  T
    1.6706799999999999   10.4727999999999994   15.8638999999999992    T  T  T
    1.9346300000000001   11.6220999999999997   16.8134000000000015    T  T  T
   18.0415999999999990   13.0349000000000004   20.6097000000000001    T  T  T
   19.4409999999999989   12.0264000000000006   19.0822000000000003    T  T  T
   19.9858000000000011   11.8575999999999997   20.5018999999999991    T  T  T
   16.3369000000000000    2.2574399999999999   20.2535999999999987    F  F  F
   17.7116000000000007    3.9060500000000000   20.9694000000000003    F  F  F
   17.2958999999999996    4.3244800000000003   19.5684000000000005    F  F  F
   11.3539999999999992   13.1068999999999996   15.8302999999999994    T  T  T
   11.1943000000000001   14.8522999999999996   17.3296999999999990    T  T  T
    9.7783999999999995   14.4849999999999994   16.8207999999999984    T  T  T
   24.1416000000000004   11.2377000000000002   19.5238000000000014    T  T  T
    0.0318687000000000    9.0541300000000007   18.9625999999999983    T  T  T
   24.0203999999999986    9.0844199999999997   20.3583999999999996    T  T  T
   21.6916000000000011   15.7120999999999995   20.0249999999999986    T  T  T
   20.6435999999999993   17.6539999999999999   20.4502999999999986    T  T  T
   19.6456000000000017   16.5209000000000010   20.6386000000000003    T  T  T
   21.7687999999999988    2.3463500000000002   15.3404000000000007    F  F  F
   21.0471000000000004    0.1739590000000000   15.8302999999999994    F  F  F
   20.5661999999999985    1.2401800000000001   16.8578000000000010    F  F  F
   19.9444000000000017   21.3780999999999999   19.3873999999999995    T  T  T
   18.0695000000000014   22.0672999999999995   20.4617000000000004    T  T  T
   18.4776999999999987   23.1269999999999989   19.4569000000000010    T  T  T
   16.6234999999999999   10.8309999999999995   15.8934999999999995    T  T  T
   15.0023999999999997   12.4748000000000001   15.6544000000000008    T  T  T
   16.3240000000000016   13.0745000000000005   16.1398000000000010    T  T  T
   17.2728999999999999   19.2215999999999987   17.9517999999999986    T  T  T
   15.3903999999999996   19.0120000000000005   16.6715000000000018    T  T  T
   15.5424000000000007   20.4551000000000016   17.1093000000000011    T  T  T
    0.0929321000000000    5.2826899999999997   18.1634999999999991    F  F  F
   23.3548000000000009    5.7839600000000004   16.3077000000000005    F  F  F
    0.1715550000000000    6.5395300000000001   16.2122999999999990    T  T  T
   17.1262000000000008    5.2779499999999997   16.3855000000000004    F  F  F
   19.3673999999999999    5.5703500000000004   15.9107000000000003    F  F  F
   18.7429999999999986    6.9522100000000000   16.0467000000000013    T  T  T
    4.8870800000000001    3.3963700000000001   20.3673000000000002    F  F  F
    3.4566300000000001    4.7862099999999996   19.3707999999999991    F  F  F
    3.2868100000000000    4.8286600000000002   20.9066000000000010    F  F  F
    8.4908599999999996   10.8987999999999996   14.8818000000000001    T  T  T
    6.7510100000000000   10.4802000000000000   15.1951999999999998    T  T  T
    8.9499200000000005   11.1936000000000000   17.2064999999999984    T  T  T
    7.1596000000000002   11.0202000000000009   17.5005999999999986    T  T  T
    0.8686210000000000   19.0263999999999989   18.5956000000000010    T  T  T
    0.0532676000000000   18.9314999999999998   20.1556999999999995    T  T  T
    2.8932000000000002   18.7410999999999994   19.6978000000000009    T  T  T
    2.0799799999999999   18.3003000000000000   21.2683999999999997    T  T  T
    6.1928700000000001    7.3905399999999997   15.0975000000000001    T  T  T
    4.9331699999999996    7.9601699999999997   16.0715000000000003    T  T  T
    6.3017200000000004    5.2550499999999998   16.0337999999999994    F  F  F
    5.5447800000000003    5.8013500000000002   17.4732999999999983    F  F  F
   14.7545999999999999    8.2863900000000008   16.3866000000000014    T  T  T
   14.0883000000000003    7.9534700000000003   14.7172000000000001    T  T  T
   12.8932000000000002    9.8108100000000000   16.9927999999999990    T  T  T
   12.3056999999999999    9.5962300000000003   15.1904000000000003    T  T  T
    5.2984000000000000   24.3844999999999992   20.9027999999999992    T  T  T
    4.4636600000000000   24.4886000000000017   19.5098999999999982    T  T  T
    3.0601400000000001   23.8750000000000000   21.8597999999999999    T  T  T
    2.5891899999999999   23.0854999999999997   20.1370000000000005    T  T  T
    2.7204500000000000   13.3579000000000008   19.5198000000000000    T  T  T
    3.6824200000000000   12.0738000000000003   18.7490999999999985    T  T  T
    3.9925299999999999   13.3710000000000004   21.4975999999999985    T  T  T
    4.5569899999999999   11.6552000000000007   21.1777000000000015    T  T  T
    7.7498199999999997   20.4784000000000006   17.4652999999999992    T  T  T
    6.1186800000000003   21.0376000000000012   17.9762999999999984    T  T  T
    6.7119600000000004   19.6125000000000007   15.5444999999999993    T  T  T
    5.1430300000000004   20.5324999999999989   15.7676999999999996    T  T  T
    2.5195699999999999   20.9215000000000018   17.5341999999999985    T  T  T
    1.2986200000000001   22.2464000000000013   17.3967999999999989    T  T  T
    2.3816299999999999   20.4436999999999998   15.2561000000000000    T  T  T
    1.1549400000000001   21.7593999999999994   15.0558999999999994    T  T  T
    8.6903100000000002   16.7641999999999989   18.6704000000000008    T  T  T
    8.7791800000000002   15.6280999999999999   20.1306000000000012    T  T  T
    6.7789299999999999   17.6002000000000010   19.7300000000000004    T  T  T
    7.3765799999999997   17.2082000000000015   21.4326000000000008    T  T  T
   15.3173999999999992    9.7996599999999994   21.3064999999999998    T  T  T
   17.2134999999999998    9.0057200000000002   21.1805999999999983    T  T  T
   15.8459000000000003   10.7291000000000007   19.2518999999999991    T  T  T
   17.2683000000000000    9.8689499999999999   19.1833999999999989    T  T  T
    3.0481400000000001   15.2788000000000004   17.1801999999999992    T  T  T
    2.4592100000000001   15.9743999999999993   15.6699999999999999    T  T  T
    5.1618199999999996   14.7596000000000007   15.8378999999999994    T  T  T
    5.0976800000000004   16.1096000000000004   14.8813999999999993    T  T  T
   23.9590999999999994   24.3484000000000016   19.7866000000000000    T  T  T
   22.5745000000000005   23.1887000000000008   19.1234999999999999    T  T  T
   22.8400999999999996   24.2972999999999999   21.7363999999999997    T  T  T
   21.7153999999999989   22.9555000000000007   21.2988000000000000    T  T  T
   22.2590000000000003    4.1523199999999996   19.1201000000000008    F  F  F
   22.8399999999999999    4.8130400000000000   20.7938000000000009    F  F  F
   23.9236000000000004    2.4710399999999999   19.4655999999999985    F  F  F
   24.0006999999999984    2.7928500000000001   21.3144999999999989    F  F  F
   10.0716999999999999    3.4558000000000000   19.8355999999999995    F  F  F
   10.3041000000000000    1.7984199999999999   19.2981000000000016    F  F  F
   11.6752000000000002    3.0360700000000000   21.5635000000000012    F  F  F
   12.2245000000000008    1.5379700000000001   20.7879000000000005    F  F  F
   10.7550000000000008    7.5925900000000004   20.8089000000000013    T  T  T
   10.0649999999999995    8.2752700000000008   19.1831999999999994    T  T  T
    8.7890300000000003    8.5812100000000004   21.6283999999999992    T  T  T
    8.0449199999999994    8.6396400000000000   19.9486999999999988    T  T  T
    8.0732199999999992   21.7021000000000015   21.6681999999999988    T  T  T
    7.7465500000000000   22.3990000000000009   20.0279999999999987    T  T  T
   10.4723000000000006   22.3871000000000002   21.3230000000000004    T  T  T
   10.0711999999999993   22.6435999999999993   19.5470000000000006    T  T  T
    9.8272600000000008   23.5578000000000003   16.7012000000000000    T  T  T
    9.9893699999999992    0.5214480000000000   15.2727000000000004    F  F  F
   11.5147999999999993   22.5306999999999995   15.4611999999999998    T  T  T
   12.0574999999999992   24.0986000000000011   14.6790000000000003    T  T  T
   20.2988999999999997   19.5661999999999985   16.6878999999999991    T  T  T
   21.0273000000000003   18.8779000000000003   15.1410999999999998    T  T  T
   22.2546999999999997   19.2432000000000016   17.9177000000000000    T  T  T
   22.6707999999999998   17.9847000000000001   16.6776000000000018    T  T  T
   21.8312999999999988   10.1745999999999999   17.7923000000000009    T  T  T
   22.3011000000000017   11.5199999999999996   16.5594999999999999    T  T  T
   19.6572999999999993    9.8787599999999998   16.7155999999999985    T  T  T
   20.0892000000000017   11.3644999999999996   15.5182000000000002    T  T  T
    1.9427200000000000    0.4259030000000000   15.1343999999999994    F  F  F
    0.2258560000000000    0.3142670000000000   15.3877000000000006    F  F  F
    1.5364199999999999    2.7815699999999999   14.8725000000000005    F  F  F
    0.0514695000000000    2.7075700000000000   15.9001999999999999    F  F  F
   13.4230999999999998   14.1072000000000006   19.3647999999999989    T  T  T
   15.2932000000000006   14.3323000000000000   19.4510000000000005    T  T  T
   13.1083999999999996   14.1130999999999993   21.5814999999999984    T  T  T
   14.7763000000000009   14.7597000000000005   21.9454999999999991    T  T  T
    5.2617900000000004    2.3933200000000001   16.2013999999999996    F  F  F
    6.4351099999999999    1.1656599999999999   15.3783999999999992    F  F  F
    5.9343800000000000    1.2496600000000000   18.2007000000000012    F  F  F
    7.0539800000000001    0.2326860000000000   17.3213000000000008    F  F  F
    0.8589550000000000   10.8566000000000003   15.1049000000000007    T  T  T
    1.4332900000000000    9.5122499999999999   16.2859000000000016    T  T  T
    1.0821200000000000   12.2987000000000002   16.9453999999999994    T  T  T
    2.2671899999999998   11.3626000000000005   17.8262000000000000    T  T  T
   19.0810999999999993   11.0724000000000000   18.6018000000000008    T  T  T
   20.1380000000000017   12.5488999999999997   18.4380999999999986    T  T  T
   20.2140999999999984   10.8170999999999999   20.7483000000000004    T  T  T
   20.8520000000000003   12.4823000000000004   20.6799999999999997    T  T  T
   17.4610999999999983    4.9187200000000004   21.3006999999999991    F  F  F
   18.8289000000000009    3.7302800000000000   20.9659000000000013    F  F  F
   16.5990000000000002    5.2202999999999999   19.4897999999999989    F  F  F
   18.1696999999999989    4.5099099999999996   18.9344999999999999    F  F  F
   11.3080999999999996   14.5919000000000008   18.3865000000000016    T  T  T
   11.4627999999999997   15.9007000000000005   17.1433000000000000    T  T  T
    9.1129700000000007   14.2154000000000007   17.6512999999999991    T  T  T
    9.3435199999999998   15.2847000000000008   16.1920999999999999    T  T  T
   24.2195000000000000    8.2291000000000007   18.2940000000000005    T  T  T
    1.1339500000000000    8.7725100000000005   19.2005000000000017    T  T  T
   23.0511000000000017    8.5904500000000006   20.7748999999999988    T  T  T
    0.0919381000000000    8.9260300000000008   21.2220000000000013    T  T  T
   21.0490999999999993   18.0707999999999984   21.3897000000000013    T  T  T
   20.2341000000000015   18.5003999999999991   19.8807000000000009    T  T  T
   19.1133999999999986   16.5289999999999999   21.5680000000000014    T  T  T
   18.9287999999999990   16.4166999999999987   19.8080999999999996    T  T  T
   20.3017000000000003   24.4846000000000004   15.0775000000000006    T  T  T
   21.7203000000000017   23.8898000000000010   16.2369999999999983    T  T  T
   19.5153999999999996    1.0087400000000000   17.1630000000000003    F  F  F
   21.1987999999999985    1.1833499999999999   17.6840000000000011    F  F  F
   17.1478999999999999   21.5320999999999998   20.2348999999999997    T  T  T
   17.9847999999999999   22.4146000000000001   21.6192999999999991    T  T  T
   17.6661999999999999   23.4950000000000010   18.8442000000000007    T  T  T
   18.8492999999999995   24.0966999999999985   19.9157000000000011    T  T  T
   14.6503999999999994   12.8516999999999992   14.7200000000000006    T  T  T
   14.2901000000000007   12.4981000000000009   16.4422999999999995    T  T  T
   16.8765999999999998   13.5540000000000003   15.2777999999999992    T  T  T
   16.3120000000000012   13.8153000000000006   16.9113000000000007    T  T  T
   15.2460000000000004   18.8408000000000015   15.6194000000000006    T  T  T
   14.6047999999999991   18.4724000000000004   17.2020000000000017    T  T  T
   15.8908000000000005   21.1219000000000001   16.3038999999999987    T  T  T
   14.6426999999999996   20.8724999999999987   17.5788000000000011    T  T  T
   23.1159999999999997    5.2352200000000000   15.4061000000000003    F  F  F
   22.6002000000000010    6.4713200000000004   16.5863000000000014    T  T  T
    0.8718040000000000    6.1019399999999999   15.4074000000000009    T  T  T
    0.1575140000000000    7.6411199999999999   16.2643999999999984    T  T  T
   20.0335000000000001    5.2726400000000000   16.7627999999999986    F  F  F
   19.5000999999999998    5.3179499999999997   14.8658999999999999    F  F  F
   18.9445000000000014    7.3976699999999997   16.9325000000000010    T  T  T
   18.9576999999999991    7.4738600000000002   15.2393999999999998    T  T  T
    3.5367400000000000    5.7536800000000001   18.8593000000000011    F  F  F
    2.6900800000000000    4.1167800000000003   18.9791999999999987    F  F  F
    3.7986200000000001    5.5728099999999996   21.4503999999999984    F  F  F
    2.2584900000000001    4.8157800000000002   21.2558000000000007    F  F  F
    8.1503099999999993    8.9221800000000009   15.3371999999999993    T  T  T
    8.1745999999999999    9.2293900000000004   17.5292999999999992    T  T  T
    8.6703499999999991    7.1835899999999997   16.7246999999999986    T  T  T
    0.2740660000000000   17.1314999999999991   19.1703000000000010    T  T  T
    2.3576999999999999   16.7790999999999997   19.9127000000000010    T  T  T
    1.0788700000000000   15.0582999999999991   19.1997000000000000    T  T  T
    4.3049999999999997    6.7526799999999998   14.6068999999999996    T  T  T
    4.1417000000000002    5.1515100000000000   16.1858000000000004    F  F  F
    2.6897099999999998    5.2151199999999998   14.5471000000000004    F  F  F
   13.3696999999999999    6.8141999999999996   16.3101999999999983    T  T  T
   11.5870999999999995    8.1525900000000000   16.3209000000000017    T  T  T
   11.4397000000000002    6.0089899999999998   17.1325000000000003    T  T  T
    5.2109899999999998   22.6270999999999987   19.8250999999999991    T  T  T
    3.8544800000000001   22.0947999999999993   21.4857000000000014    T  T  T
    5.2246400000000000   20.5211000000000006   20.5756000000000014    T  T  T
    4.7260200000000001   13.9751999999999992   18.9546999999999990    T  T  T
    5.8238399999999997   13.2143999999999995   20.7042999999999999    T  T  T
    7.0145499999999998   14.0599000000000007   19.1395000000000017    T  T  T
    7.2804099999999998   22.3828999999999994   16.8976000000000006    T  T  T
    6.6844299999999999   21.5793999999999997   14.9011999999999993    T  T  T
    7.5434299999999999   23.6585000000000001   15.0336999999999996    T  T  T
    3.3117500000000000   22.7490999999999985   17.0825999999999993    T  T  T
    3.1466300000000000   22.3543999999999983   14.8985000000000003    T  T  T
    4.5716200000000002   23.9690000000000012   15.6189000000000000    T  T  T
    9.9319299999999995   17.3268999999999984   20.2404000000000011    T  T  T
    8.2818799999999992   18.8207999999999984   20.5046999999999997    T  T  T
   10.4437999999999995   19.3797999999999995   20.8461999999999996    T  T  T
   15.4969000000000001    7.8135199999999996   20.5660999999999987    T  T  T
   15.6403999999999996    8.6749899999999993   18.4834999999999994    T  T  T
   14.6410000000000000    6.5909700000000004   18.7835000000000001    T  T  T
    3.3911699999999998   17.3332000000000015   16.9192999999999998    T  T  T
    5.5006800000000000   16.6022999999999996   16.9523000000000010    T  T  T
    4.8893700000000004   18.2561999999999998   18.3225000000000016    T  T  T
   24.2924000000000007   22.2256000000000000   19.8853000000000009    T  T  T
   23.4151999999999987   22.1513999999999989   21.9577999999999989    T  T  T
    0.5842070000000000   20.8199000000000005   21.3762000000000008    T  T  T
   21.1648999999999994    3.4586700000000001   20.7100000000000009    F  F  F
   22.4125000000000014    1.6352700000000000   20.6517000000000017    F  F  F
   20.1661000000000001    1.4473000000000000   20.9314999999999998    F  F  F
   11.5150000000000006    3.2575500000000002   18.4288999999999987    F  F  F
   13.1113000000000000    3.1411500000000001   19.9787999999999997    F  F  F
   13.6152999999999995    3.7059400000000000   17.8337000000000003    F  F  F
    9.5627499999999994    6.2001099999999996   19.5314000000000014    T  T  T
    8.0884999999999998    6.5822000000000003   21.1174999999999997    T  T  T
    7.9053199999999997    4.6798200000000003   19.9259999999999984    F  F  F
    7.8879099999999998   23.8555999999999990   21.4081000000000010    T  T  T
    9.9882500000000007   24.3373999999999988   20.7320999999999991    T  T  T
    8.5974000000000004    1.4929699999999999   21.1401000000000003    F  F  F
   10.9989000000000008    0.5552510000000001   17.1131999999999991    F  F  F
   12.7333999999999996   23.8260000000000005   16.4792999999999985    T  T  T
   12.9954999999999998    0.7381630000000000   18.2432000000000016    F  F  F
   21.5584999999999987   20.7905000000000015   15.6098999999999997    T  T  T
   23.4624999999999986   19.8536000000000001   16.3439000000000014    T  T  T
   23.4901000000000018   21.9604999999999997   15.4819999999999993    T  T  T
   22.6702000000000012    9.4982399999999991   16.0154999999999994    T  T  T
   20.6581000000000010    9.3351299999999995   15.0193999999999992    T  T  T
   22.2893000000000008    7.8385199999999999   14.5015999999999998    T  T  T
    1.2562500000000001    0.4310990000000000   17.1001000000000012    F  F  F
    1.8970000000000000    2.5964900000000002   16.9034000000000013    F  F  F
    1.9454199999999999    1.6005499999999999   18.9481000000000002    F  F  F
   14.0571000000000002   16.1284999999999989   19.3445999999999998    T  T  T
   13.3423999999999996   16.1578000000000017   21.5100000000000016    T  T  T
   13.1745000000000001   18.0044000000000004   20.2480000000000011    T  T  T
    7.2332999999999998    2.9111300000000000   15.8956000000000000    F  F  F
    7.7673199999999998    2.0680600000000000   17.9072999999999993    F  F  F
    8.7913700000000006    3.9900300000000000   17.1731000000000016    F  F  F
    2.9686300000000001   10.2963000000000005   15.2095000000000002    T  T  T
    2.9967100000000002   12.3620999999999999   16.1229000000000013    T  T  T
    4.7901699999999998   11.6492000000000004   14.8994999999999997    T  T  T
   18.2835000000000001   12.8971999999999998   19.2792999999999992    T  T  T
   18.9113000000000007   12.3391999999999999   21.3607000000000014    T  T  T
   17.1269999999999989   13.6898999999999997   21.0507999999999988    T  T  T
   16.9705000000000013    2.5998899999999998   21.2601000000000013    F  F  F
   16.5421000000000014    3.0781999999999998   19.0802000000000014    F  F  F
   15.6033000000000008    1.2867599999999999   20.0677999999999983    F  F  F
   12.0558999999999994   14.0289999999999999   16.5450000000000017    T  T  T
    9.9990900000000007   13.3550000000000004   15.9602000000000004    T  T  T
   11.8381000000000007   12.2346000000000004   15.1898000000000000    T  T  T
   24.4332999999999991   10.4710000000000001   18.5616999999999983    T  T  T
   23.6402000000000001   10.5279000000000007   20.6254999999999988    T  T  T
   24.2799000000000014   12.4532000000000007   19.5748999999999995    T  T  T
   21.6909999999999989   17.0005999999999986   19.6827000000000005    T  T  T
   20.5268000000000015   15.3542000000000005   20.6331999999999987    T  T  T
   22.5960999999999999   14.9230999999999998   19.8206999999999987    T  T  T
   22.0792999999999999    0.9967930000000000   15.1663999999999994    F  F  F
   20.7250000000000014    2.4677799999999999   16.1701000000000015    F  F  F
   22.3706999999999994    3.2182200000000001   14.7629000000000001    F  F  F
   19.1631000000000000   21.0947999999999993   20.4345999999999997    T  T  T
   19.5084000000000017   22.4740000000000002   18.6801999999999992    T  T  T
   20.9600000000000009   20.7516999999999996   19.1368000000000009    T  T  T
   15.3577999999999992   11.0174000000000003   15.4314000000000000    T  T  T
   17.1168000000000013   11.8885000000000005   16.5578000000000003    T  T  T
   17.2165999999999997    9.7887400000000007   15.7085000000000008    T  T  T
   16.6678999999999995   18.4249000000000009   17.0317000000000007    T  T  T
   16.5796999999999990   20.3713000000000015   18.1484999999999985    T  T  T
   18.2761999999999993   18.9171000000000014   18.5381000000000000    T  T  T
   23.5626999999999995    4.8901100000000000   17.4768000000000008    F  F  F
    0.8717020000000000    6.1593499999999999   17.4502999999999986    T  T  T
    0.4269760000000000    4.9482499999999998   19.2647000000000013    F  F  F
   18.2710000000000008    4.6452999999999998   16.2962999999999987    F  F  F
   17.2658999999999985    6.6663600000000001   16.0405000000000015    T  T  T
   16.0578000000000003    4.8505799999999999   16.6898000000000017    F  F  F
    4.7625799999999998    4.1431300000000002   19.2850999999999999    F  F  F
    4.0135399999999999    3.6076199999999998   21.3066999999999993    F  F  F
    5.8132299999999999    2.6327500000000001   20.5428999999999995    F  F  F
   11.9349000000000007   10.9707000000000008   19.4599000000000011    T  T  T
   13.9260000000000002   22.0680000000000014   20.6984999999999992    T  T  T
    4.4615700000000000    8.8185199999999995   19.3276000000000003    T  T  T
   16.3858999999999995    0.3911100000000000   15.9197000000000006    F  F  F
   10.9859000000000009   19.5568999999999988   16.6434999999999995    T  T  T
   23.0734999999999992   14.6910000000000007   15.7800999999999991    T  T  T
   20.2112000000000016    7.3222100000000001   19.7281000000000013    T  T  T
   10.9795999999999996   10.7531999999999996   18.1491000000000007    T  T  T
   11.5295000000000005   12.5696999999999992   19.5402999999999984    T  T  T
   12.9450000000000003   11.1938999999999993   20.7551999999999985    T  T  T
   13.2058999999999997   11.3569999999999993   18.4351999999999983    T  T  T
   12.3768999999999991    9.3800100000000004   19.3915000000000006    T  T  T
   10.6768999999999998   10.6125000000000007   20.4329000000000001    T  T  T
   12.6255000000000006   21.4847000000000001   19.8154000000000003    T  T  T
   13.2498000000000005   21.4147999999999996   21.9999000000000002    T  T  T
   15.1956000000000007   22.6548000000000016   21.5514000000000010    T  T  T
   13.0905000000000005   23.4517999999999986   20.8959000000000010    T  T  T
   14.5160999999999998   22.6223999999999990   19.2438000000000002    T  T  T
   14.7988999999999997   20.6966000000000001   20.4513999999999996    T  T  T
    5.1684599999999996    9.9711999999999996   18.3899000000000008    T  T  T
    5.7172599999999996    7.7965600000000004   18.9768000000000008    T  T  T
    3.7614600000000000    7.6667500000000004   20.2379999999999995    T  T  T
    3.6342699999999999    8.2250899999999998   18.0437000000000012    T  T  T
    3.2067800000000002    9.8946199999999997   19.6467999999999989    T  T  T
    5.2699999999999996    9.3510100000000005   20.6391999999999989    T  T  T
   15.5482999999999993   24.0752999999999986   14.8750000000000000    T  T  T
   15.7464999999999993   24.1796000000000006   17.2336999999999989    T  T  T
   17.1146999999999991    1.4345399999999999   17.0629999999999988    F  F  F
   15.0921000000000003    1.5292300000000001   15.9269999999999996    F  F  F
   17.0551999999999992    1.3001400000000001   14.7559000000000005    F  F  F
   17.6883000000000017   24.0063999999999993   16.0200999999999993    T  T  T
   11.4418000000000006   18.0713000000000008   16.0835000000000008    T  T  T
   12.2060999999999993   20.2145000000000010   15.7406000000000006    T  T  T
   10.7248999999999999   21.0447999999999986   17.2898999999999994    T  T  T
   12.1257000000000001   19.3051999999999992   17.9049000000000014    T  T  T
    9.8396899999999992   18.8596000000000004   17.6338000000000008    T  T  T
    9.8738600000000005   19.7489999999999988   15.4833999999999996    T  T  T
   22.4893999999999998   15.9171999999999993   14.9284999999999997    T  T  T
   22.7598999999999982   13.6034000000000006   14.6382999999999992    T  T  T
   23.7241000000000000   13.4189000000000007   16.7874000000000017    T  T  T
   21.5903999999999989   14.3772000000000002   16.4852999999999987    T  T  T
   23.4213999999999984   15.6687999999999992   17.0502000000000002    T  T  T
    0.0251500000000000   14.9246999999999996   15.2239000000000004    T  T  T
   21.6726999999999990    7.0256999999999996   20.3717000000000006    T  T  T
   20.0951999999999984    8.7533899999999996   20.5533999999999999    T  T  T
   18.6200000000000010    7.5837800000000000   19.0959000000000003    T  T  T
   19.5289999999999999    6.5181699999999996   20.9512000000000000    T  T  T
   20.3717000000000006    6.0064099999999998   18.7857999999999983    T  T  T
   20.8563000000000009    8.1730800000000006   18.4435000000000002    T  T  T
